5163
Lattice="68.31825784627709 1.5959455978986625e-14 0.0 3.1269682451050897 -120.05036135586383 0.0 0.0 0.0 32.94961447000001" Properties=species:S:1:pos:R:3:atom_types:I:1:layer_id:I:1 vacuum=20 Rs_xtal_0="[-11 -22 -23  21]" Rs_cart_0="[0.0062 -68.2716 -120.0569 65.1792]" base_lattice_0="[3.5836 -0.0003 -1.7921 3.1034]" twist_0="[0.0000]" Rs_xtal_1="[-12 -22 -21  23]" Rs_cart_1="[0.0005 -68.3649 -120.0502 65.1917]" base_lattice_1="[3.5787 0.1872 -1.9520 3.0054]" twist_1="[0.0524]" pbc="T T T"
Hf      -0.03821314      -0.00438473      12.62099552        0        0
S       70.34971189    -118.26925081      14.10803135        1        0
S       66.21194831      -0.01491192      11.13549296        2        0
Hf      65.20119030      -1.81918294      12.62095198        0        0
S       67.27551265    -120.07983265      14.10798041        1        0
S       63.13614759      -1.83145285      11.13329041        2        0
Hf       6.12865284    -114.67796614      12.60876543        0        0
S        5.06483593    -112.89504396      14.09279593        1        0
S        4.05755084    -114.68043469      11.12529899        2        0
Hf       3.04205041    -116.47562097      12.61492552        0        0
S       70.29973649    -114.68688237      14.09998139        1        0
S       69.29182241    -116.47837910      11.12985657        2        0
Hf      68.28296970    -118.28065346      12.61726333        0        0
S       67.22624162    -116.48771838      14.10264248        1        0
S       66.21742355    -118.28531927      11.13016197        2        0
Hf      62.08617807      -0.04355657      12.61516264        0        0
S       64.16065650    -118.29827270      14.10046832        1        0
S       60.02313002      -0.04908006      11.12639849        2        0
Hf      59.02139676      -1.86246195      12.60928151        0        0
S       61.10013204    -120.11531600      14.09445140        1        0
S       56.96035046      -1.86548723      11.11908082        2        0
Hf       9.18485462    -109.32568534      12.58657270        0        0
S        8.11916284    -107.54367719      14.06347477        1        0
S        7.11269575    -109.32814098      11.10252674        2        0
Hf       6.08261843    -111.11008500      12.59657350        0        0
S        5.01914194    -109.32223392      14.07615327        1        0
S        4.01173129    -111.10818206      11.11263786        2        0
Hf       2.99261306    -112.89833718      12.60511602        0        0
S       70.24981800    -111.10477973      14.08703851        1        0
S       69.24204463    -112.89495439      11.12039650        2        0
Hf      68.23212609    -114.69362655      12.61029486        0        0
S       67.17388809    -112.89636302      14.09353062        1        0
S       66.16603553    -114.69164305      11.12389964        2        0
Hf      65.16267061    -116.49808300      12.61084977        0        0
S       64.10762722    -114.69893624      14.09448198        1        0
S       63.09910420    -116.49757409      11.12287507        2        0
Hf      62.09978284    -118.31002069      12.60731269        0        0
S       61.04835292    -116.50974265      14.09093069        1        0
S       60.03817970    -118.30837634      11.11824388        2        0
Hf      55.91372801      -0.07442871      12.60058421        0        0
S       57.99297826    -118.32380058      14.08416657        1        0
S       53.85386091      -0.06765873      11.11022205        2        0
Hf      52.85563861      -1.88620631      12.59001738        0        0
S       54.93827916    -120.13585345      14.07397675        1        0
S       50.79762977      -1.87017199      11.09738610        2        0
Hf      12.28038701    -103.99554830      12.55329703        0        0
S       11.21597601    -102.20910518      14.02003176        1        0
S       10.20812260    -104.00214450      11.06602474        2        0
Hf       9.15585214    -105.76819085      12.56442276        0        0
S        8.09395261    -103.97799947      14.03335150        1        0
S        7.08449264    -105.77057462      11.07846655        2        0
Hf       6.04453557    -107.54395233      12.57695810        0        0
S        4.98464104    -105.74846969      14.04931893        1        0
S        3.97395691    -107.54057083      11.09213294        2        0
Hf       2.94716307    -109.32281916      12.58927894        0        0
S       70.20733907    -107.52196344      14.06546260        1        0
S       69.19629884    -109.31594540      11.10473150        2        0
Hf      68.18157292    -111.10827154      12.59879090        0        0
S       67.12527353    -109.30444200      14.07800948        1        0
S       66.11491097    -111.10143236      11.11314488        2        0
Hf      65.10938299    -112.90356947      12.60319501        0        0
S       64.05508451    -111.09915954      14.08407845        1        0
S       63.04536237    -112.89792252      11.11601681        2        0
Hf      62.04590274    -114.70792765      12.60251204        0        0
S       60.99425437    -112.90368038      14.08409954        1        0
S       59.98396001    -114.70173871      11.11434587        2        0
Hf      58.98812211    -116.51709637      12.59827496        0        0
S       57.93982817    -114.71294776      14.08024085        1        0
S       56.92777778    -116.50711178      11.10944620        2        0
Hf      55.93336992    -118.32555892      12.59119443        0        0
S       54.88868105    -116.52188974      14.07385587        1        0
S       53.87446558    -118.30842251      11.10132723        2        0
Hf      49.75187962      -0.07763636      12.58035773        0        0
S       51.83748914    -118.32623401      14.06467917        1        0
S       47.69426402      -0.05080305      11.08871994        2        0
Hf      46.69396157      -1.86976359      12.56361889        0        0
S       48.78216066    -120.12251092      14.05117689        1        0
S       44.63703356      -1.83231316      11.06987953        2        0
Hf      15.41966677     -98.68051374      12.51849236        0        0
S       14.36090157     -96.88747147      13.97839244        1        0
S       13.35052694     -98.68737253      11.02369758        2        0
Hf      12.27884769    -100.44456359      12.52087859        0        0
S       11.22176873     -98.64795507      13.97980928        1        0
S       10.20806181    -100.45114237      11.03030779        2        0
Hf       9.14478281    -102.21050643      12.53137520        0        0
S        8.09008679    -100.40988165      13.99136689        1        0
S        7.07392550    -102.21368353      11.04343247        2        0
Hf       6.02220106    -103.97846011      12.54623794        0        0
S        4.96944831    -102.17309419      14.00943364        1        0
S        3.95158770    -103.97580669      11.06046085        2        0
Hf       2.91371329    -105.74850162      12.56315866        0        0
S       70.18062513    -103.93820721      14.03099577        1        0
S       69.16221752    -105.74104682      11.07888059        2        0
Hf      68.13872446    -107.52416170      12.57904537        0        0
S       67.08834850    -105.71130470      14.05154537        1        0
S       66.07116998    -107.51503636      11.09442155        2        0
Hf      65.05988354    -109.30978411      12.58974537        0        0
S       64.01034487    -107.49759655      14.06576852        1        0
S       62.99519286    -109.30072714      11.10362879        2        0
Hf      61.99264022    -111.10575203      12.59377991        0        0
S       60.94459109    -109.29555258      14.07214427        1        0
S       59.93033392    -111.09591805      11.10659725        2        0
Hf      58.93365029    -112.90837310      12.59287673        0        0
S       57.88809055    -111.09993463      14.07292980        1        0
S       56.87293183    -112.89548434      11.10538417        2        0
Hf      55.87992162    -114.71246078      12.58909777        0        0
S       54.83757526    -112.90565388      14.07087619        1        0
S       53.82027382    -114.69421216      11.10149929        2        0
Hf      52.82872791    -116.51332579      12.58307846        0        0
S       51.78958227    -114.70896064      14.06734518        1        0
S       50.76984879    -116.48805142      11.09504639        2        0
Hf      49.77694249    -118.30732265      12.57405379        0        0
S       48.74014747    -116.50717484      14.06202822        1        0
S       47.71852471    -118.27416460      11.08496276        2        0
Hf      43.59358222      -0.04157595      12.56018158        0        0
S       45.68458605    -118.29797321      14.05298872        1        0
S       41.53488156      -0.00053830      11.06963826        2        0
Hf      40.52774774      -1.81527967      12.53980102        0        0
S       42.61811043    -120.07859162      14.03778467        1        0
S       38.46687263      -1.76766514      11.04881259        2        0
Hf      18.58572043     -93.35902207      12.50266592        0        0
S       17.53827037     -91.56335779      13.96414465        1        0
S       16.52359767     -93.36365215      10.99946604        2        0
Hf      15.44168051     -95.12619463      12.48682432        0        0
S       14.39287061     -93.32599139      13.94385580        1        0
S       13.37570825     -95.12962628      10.98800648        2        0
Hf      12.29661116     -96.88783386      12.48168288        0        0
S       11.24920311     -95.08250950      13.93579538        1        0
S       10.22752716     -96.89200600      10.98803874        2        0
Hf       9.15513266     -98.64900716      12.48821566        0        0
S        8.11037622     -96.83838455      13.94144280        1        0
S        7.08439128     -98.65171609      10.99878227        2        0
Hf       6.02175047    -100.41088091      12.50349120        0        0
S        4.97927819     -98.59527382      13.95844446        1        0
S        3.95032104    -100.40915238      11.01735922        2        0
Hf       2.90030168    -102.17364867      12.52413686        0        0
S       70.17744547    -100.35355230      13.98315758        1        0
S       69.14730236    -102.16721614      11.04059867        2        0
Hf      68.11209758    -103.94034077      12.54684632        0        0
S       67.07150737    -102.11770493      14.01107729        1        0
S       66.04267889    -103.93128625      11.06397352        2        0
Hf      65.02203811    -105.71602793      12.56626057        0        0
S       63.98146029    -103.89441948      14.03551961        1        0
S       62.95574567    -105.70594077      11.08208673        2        0
Hf      61.94690418    -107.50282286      12.57823262        0        0
S       60.90656469    -105.68474704      14.05183789        1        0
S       59.88353773    -107.49139871      11.09269927        2        0
Hf      58.88330391    -109.29813032      12.58327223        0        0
S       57.84410951    -107.48400739      14.06065315        1        0
S       56.82180708    -109.28397727      11.09741074        2        0
Hf      55.82769876    -111.09730558      12.58416870        0        0
S       54.79050355    -109.28689864      14.06518625        1        0
S       53.76712305    -111.07922031      11.09876627        2        0
Hf      52.77697461    -112.89619374      12.58312947        0        0
S       51.74190716    -111.08974686      14.06804485        1        0
S       50.71681347    -112.87353158      11.09819787        2        0
Hf      49.72804745    -114.69175367      12.58066072        0        0
S       48.69429394    -112.89029368      14.07001413        1        0
S       47.66812193    -114.66414634      11.09554731        2        0
Hf      46.67733459    -116.48167001      12.57566094        0        0
S       45.64319671    -114.68657645      14.06980960        1        0
S       44.61749209    -116.44858877      11.08922512        2        0
Hf      43.62041012    -118.26363032      12.56577692        0        0
S       42.58382142    -116.47599781      14.06453366        1        0
S       41.55973171    -118.22488515      11.07743413        2        0
Hf      37.42519217       0.01460903      12.54947232        0        0
S       39.51179617    -118.25514714      14.05183447        1        0
S       35.36124377       0.05776976      11.06080065        2        0
Hf      34.34099058      -1.74752081      12.52935727        0        0
S       36.42458670    -120.02187065      14.03361447        1        0
S       32.27058624      -1.70303688      11.04409158        2        0
Hf      21.76245551     -88.00635863      12.51684170        0        0
S       20.72420864     -86.21530110      13.98839026        1        0
S       19.70520534     -88.01425899      11.01086677        2        0
Hf      18.62399670     -89.79213333      12.48548125        0        0
S       17.58378197     -87.99557990      13.95005395        1        0
S       16.56469329     -89.79176400      10.97989750        2        0
Hf      15.47914878     -91.56144532      12.45909121        0        0
S       14.43887238     -89.75852788      13.91765667        1        0
S       13.41612182     -91.55825379      10.95711268        2        0
Hf      12.33173004     -93.32191221      12.44301176        0        0
S       11.29356722     -91.51235471      13.89727364        1        0
S       10.26457552     -93.31987928      10.94677682        2        0
Hf       9.18577577     -95.07997651      12.44090511        0        0
S        8.15104760     -93.26358668      13.89258662        1        0
S        7.11515848     -95.07889446      10.95057189        2        0
Hf       6.04463061     -96.83780832      12.45256367        0        0
S        5.01318648     -95.01512086      13.90370176        1        0
S        3.97177114     -96.83490788      10.96698525        2        0
Hf       2.91161459     -98.59549272      12.47427043        0        0
S       70.20061665     -96.76789959      13.92750582        1        0
S       69.15613291     -98.58931002      10.99231302        2        0
Hf      68.10899680    -100.35517528      12.50172837        0        0
S       67.08069853     -98.52482314      13.95931379        1        0
S       66.03633176    -100.34666662      11.02165036        2        0
Hf      65.00405619    -102.12170187      12.52970329        0        0
S       63.97562782    -100.29186459      13.99263569        1        0
S       62.93446664    -102.11221572      11.04904281        2        0
Hf      61.91633382    -103.89902246      12.55224115        0        0
S       60.88725654    -102.07299592      14.02075872        1        0
S       59.85031660    -103.88844770      11.06989567        2        0
Hf      58.84369689    -105.68664201      12.56683893        0        0
S       57.81419630    -103.86622259      14.04113065        1        0
S       56.78022046    -105.67397923      11.08369726        2        0
Hf      55.78235137    -107.48090953      12.57545969        0        0
S       54.75293470    -105.66647842      14.05550733        1        0
S       53.72013833    -107.46556370      11.09267192        2        0
Hf      52.72856861    -109.27810439      12.58100479        0        0
S       51.69930930    -107.46965701      14.06666013        1        0
S       50.66688418    -109.26014615      11.09890792        2        0
Hf      49.67897419    -111.07547280      12.58507127        0        0
S       48.64916675    -109.27326198      14.07601850        1        0
S       47.61763535    -111.05505062      11.10306882        2        0
Hf      46.63009926    -112.87079834      12.58740213        0        0
S       45.59823657    -111.07539863      14.08311209        1        0
S       44.56919310    -112.84734501      11.10414853        2        0
Hf      43.57788828    -114.66136700      12.58598128        0        0
S       42.54185282    -112.87359030      14.08558304        1        0
S       41.51711767    -114.63378836      11.10009120        2        0
Hf      40.51738001    -116.44409184      12.57821643        0        0
S       39.47526001    -114.66418496      14.08043762        1        0
S       38.45512769    -116.41202713      11.08981723        2        0
Hf      37.44326107    -118.21687177      12.56396844        0        0
S       36.39463319    -116.44341606      14.06702598        1        0
S       35.37647542    -118.18203193      11.07575774        2        0
Hf      31.22465997       0.07000698      12.54795166        0        0
S       33.29873190    -118.21046500      14.05015895        1        0
S       29.15065043       0.10405055      11.06403906        2        0
Hf      28.11549867      -1.68762217      12.53784233        0        0
S       30.18979990    -119.96932577      14.03867970        1        0
S       26.03428668      -1.65873362      11.06082479        2        0
Hf      24.92645394     -82.61150949      12.55528249        0        0
S       23.88977063     -80.82640700      14.03812980        1        0
S       22.86831459     -82.62858152      11.05337929        2        0
Hf      21.80410319     -84.42383267      12.52059323        0        0
S       20.76652375     -82.63567149      13.99750849        1        0
S       19.74824986     -84.42770977      11.01362398        2        0
Hf      18.67050941     -86.21445415      12.48027318        0        0
S       17.63307082     -84.42075344      13.95029208        1        0
S       16.61362005     -86.20799161      10.97255245        2        0
Hf      15.52780925     -87.98608287      12.44237567        0        0
S       14.49220320     -86.18512489      13.90582096        1        0
S       13.46736653     -87.97474146      10.93779336        2        0
Hf      12.38008499     -89.74589781      12.41371228        0        0
S       11.34821867     -87.93736658      13.87246547        1        0
S       10.31484202     -89.73487893      10.91529300        2        0
Hf       9.23193322     -91.50156585      12.39952157        0        0
S        8.20470269     -89.68543622      13.85548460        1        0
S        7.16177649     -91.49279763      10.90849393        2        0
Hf       6.08660209     -93.25681873      12.40221812        0        0
S        5.06373686     -91.43326125      13.85638986        1        0
S        4.01235972     -93.24899028      10.91783518        2        0
Hf       2.94603231     -95.01166239      12.42022754        0        0
S       70.24506020     -93.18180344      13.87393931        1        0
S       69.18756713     -95.00292534      10.94087107        2        0
Hf      68.13149791     -96.76683828      12.44893530        0        0
S       67.11487005     -94.93310535      13.90466702        1        0
S       66.05456404     -96.75707886      10.97273123        2        0
Hf      65.01126525     -98.52625186      12.48256974        0        0
S       63.99572164     -96.69203340      13.94267600        1        0
S       62.93667858     -98.51678321      11.00701496        2        0
Hf      61.90770198    -100.29496806      12.51495839        0        0
S       60.89162767     -98.46378083      13.98067487        1        0
S       59.83694517    -100.28631726      11.03795784        2        0
Hf      58.82144765    -102.07514889      12.54135993        0        0
S       57.80385709    -100.24969633      14.01345910        1        0
S       56.75415590    -102.06643277      11.06276175        2        0
Hf      55.74976002    -103.86494388      12.56094774        0        0
S       54.73024715    -102.04663159      14.03997860        1        0
S       53.68471064    -103.85530426      11.08175970        2        0
Hf      52.68869391    -105.66105742      12.57563656        0        0
S       51.66691012    -103.85025406      14.06148769        1        0
S       50.62497598    -105.65048847      11.09641259        2        0
Hf      49.63447541    -107.46071352      12.58722591        0        0
S       48.60970096    -105.65741090      14.07908181        1        0
S       47.57175616    -107.44949108      11.10756555        2        0
Hf      46.58352900    -109.26155514      12.59616813        0        0
S       45.55452357    -107.46578309      14.09274684        1        0
S       44.52177883    -109.24919389      11.11495182        2        0
Hf      43.53193685    -111.06063370      12.60132498        0        0
S       42.49691440    -109.27274291      14.10116872        1        0
S       41.47104122    -111.04565345      11.11710071        2        0
Hf      40.47504369    -112.85419005      12.60037151        0        0
S       39.43208199    -111.07454070      14.10190308        1        0
S       38.41399163    -112.83505726      11.11241809        2        0
Hf      37.40740313    -114.63863236      12.59175012        0        0
S       36.35550142    -112.86656908      14.09322012        1        0
S       35.34372180    -114.61545000      11.10148158        2        0
Hf      34.32395062    -116.41266280      12.57758195        0        0
S       33.26436562    -114.64573706      14.07727030        1        0
S       32.25448443    -116.38783990      11.08877720        2        0
Hf      31.22249810    -118.17821468      12.56445133        0        0
S       30.15914786    -116.41344152      14.06153688        1        0
S       29.14577225    -118.15575222      11.08093909        2        0
Hf      24.97882832       0.11030928      12.55946206        0        0
S       27.04376731    -118.17556269      14.05447765        1        0
S       22.89659690       0.12585488      11.08231548        2        0
Hf      21.85389561      -1.65495932      12.56489480        0        0
S       23.92359988    -119.94063727      14.05894552        1        0
S       19.77015451      -1.65010859      11.09137289        2        0
Hf      28.04921397     -77.18370938      12.59079251        0        0
S       27.01083323     -75.40002920      14.07949372        1        0
S       25.98730854     -77.21058006      11.09692352        2        0
Hf      24.95033260     -79.01691586      12.56872987        0        0
S       23.91187867     -77.23208992      14.05420748        1        0
S       22.89264458     -79.03138360      11.06762749        2        0
Hf      21.84056071     -80.83339423      12.53370948        0        0
S       20.80189029     -79.04697155      14.01475088        1        0
S       19.78591551     -80.83330810      11.02628816        2        0
Hf      18.71725918     -82.62829931      12.48819009        0        0
S       17.67954064     -80.83827594      13.96379587        1        0
S       16.66250934     -82.61574216      10.97857529        2        0
Hf      15.58109934     -84.40235882      12.44035733        0        0
S       14.54619953     -82.60629227      13.91026489        1        0
S       13.52306948     -84.38290888      10.93331277        2        0
Hf      12.43602097     -86.16192693      12.39940655        0        0
S       11.40626727     -84.35850406      13.86499869        1        0
S       10.37264814     -86.14154998      10.89895377        2        0
Hf       9.28758591     -87.91535991      12.37274446        0        0
S        8.26408787     -86.10430028      13.83622466        1        0
S        7.21824648     -87.89713451      10.88080016        2        0
Hf       6.14035293     -89.66816425      12.36388622        0        0
S        5.12224433     -87.84946620      13.82621958        1        0
S        4.06551516     -89.65217706      10.88012774        2        0
Hf       2.99623630     -91.42131466      12.37283972        0        0
S       70.30098729     -89.59537696      13.83383411        1        0
S       69.23531132     -91.40650465      10.89603260        2        0
Hf      68.17464582     -93.17429573      12.39736138        0        0
S       67.16565946     -91.34273761      13.85785315        1        0
S       66.09332923     -93.16033210      10.92562487        2        0
Hf      65.04254376     -94.92925276      12.43251364        0        0
S       64.03721350     -93.09534253      13.89501102        1        0
S       62.96219304     -94.91744949      10.96300957        2        0
Hf      61.92354685     -96.69142322      12.47143272        0        0
S       60.91955828     -94.85905173      13.93826763        1        0
S       59.84666852     -96.68336880      11.00125674        2        0
Hf      58.82123501     -98.46528879      12.50812814        0        0
S       57.81602524     -96.63759959      13.98055051        1        0
S       56.74852196     -98.46082455      11.03583213        2        0
Hf      55.73531148    -100.25131606      12.53947901        0        0
S       54.72699696     -98.43024730      14.01827088        1        0
S       53.66611845    -100.24907836      11.06515223        2        0
Hf      52.66273786    -102.04699894      12.56504866        0        0
S       51.64997218    -100.23356658      14.05047569        1        0
S       50.59623282    -102.04605455      11.08907749        2        0
Hf      49.59974910    -103.84936952      12.58549103        0        0
S       48.58139172    -102.04402451      14.07685947        1        0
S       47.53541081    -103.84932356      11.10773074        2        0
Hf      46.54265048    -105.65571983      12.60119096        0        0
S       45.51754697    -103.85857776      14.09710142        1        0
S       44.48010491    -105.65582782      11.12106001        2        0
Hf      43.48757425    -107.46287162      12.61185336        0        0
S       42.45438121    -105.67407685      14.11061446        1        0
S       41.42649904    -107.46142170      11.12838210        2        0
Hf      40.43011473    -109.26675474      12.61614873        0        0
S       39.38736023    -107.48650019      14.11605440        1        0
S       38.36980417    -109.26147070      11.12843249        2        0
Hf      37.36509463    -111.06286459      12.61233442        0        0
S       36.31181773    -109.29086480      14.11179005        1        0
S       35.30372004    -111.05244553      11.12083176        2        0
Hf      34.28704161    -112.84819077      12.60073627        0        0
S       33.22388731    -111.08264118      14.09820642        1        0
S       32.22158338    -112.83360441      11.10831834        2        0
Hf      31.19203565    -114.62283579      12.58601383        0        0
S       30.12211138    -112.86062852      14.08039214        1        0
S       29.11997379    -114.60730838      11.09685153        2        0
Hf      28.08040869    -116.39030165      12.57551912        0        0
S       27.00881036    -114.62875577      14.06708382        1        0
S       26.00184980    -116.37824791      11.09247492        2        0
Hf      24.95773044    -118.15693990      12.57457102        0        0
S       23.88919135    -116.39475525      14.06458013        1        0
S       22.87586880    -118.15273336      11.09682870        2        0
Hf      18.70544113       0.11952539      12.58215943        0        0
S       20.76915578    -118.16789843      14.07190510        1        0
S       16.62412586       0.11382989      11.10613314        2        0
Hf      15.58375824      -1.66684546      12.59304987        0        0
S       17.65256491    -119.95349247      14.08328092        1        0
S       13.50458365      -1.68112349      11.11596260        2        0
Hf      31.13278359     -71.74448943      12.61106464        0        0
S       30.09214879     -69.96043903      14.10157557        1        0
S       29.06850786     -71.77423235      11.12225055        2        0
Hf      28.04832301     -73.58418323      12.60055322        0        0
S       27.00969638     -71.79803645      14.08948609        1        0
S       25.98717883     -73.60743698      11.10751992        2        0
Hf      24.96082742     -75.41725463      12.58187643        0        0
S       23.92272602     -73.63007284      14.06860293        1        0
S       22.90355598     -75.42894583      11.08233002        2        0
Hf      21.86501850     -77.23643598      12.55041850        0        0
S       20.82665212     -75.44894338      14.03423927        1        0
S       19.81104928     -77.23313920      11.04406540        2        0
Hf      18.75587346     -79.03551420      12.50546234        0        0
S       17.71787258     -77.24710495      13.98568907        1        0
S       16.70264895     -79.01796014      10.99533558        2        0
Hf      15.63111476     -80.81297261      12.45276608        0        0
S       14.59521599     -79.02155446      13.92901739        1        0
S       13.57527982     -80.78629309      10.94371989        2        0
Hf      12.49281436     -82.57349773      12.40195626        0        0
S       11.46187476     -80.77666393      13.87496155        1        0
S       10.43149190     -82.54450391      10.89926965        2        0
Hf       9.34657772     -84.32542706      12.36363087        0        0
S        8.32309896     -82.52160888      13.83508708        1        0
S        7.27851837     -84.29821060      10.87039065        2        0
Hf       6.19882996     -86.07561171      12.34389599        0        0
S        5.18228079     -84.26427881      13.81498608        1        0
S        4.12445345     -86.05068528      10.85971941        2        0
Hf       3.05332818     -87.82660288      12.34242471        0        0
S       70.36032448     -86.00788205      13.81300025        1        0
S       69.29161801     -87.80348316      10.86634645        2        0
Hf      68.22896402     -89.57805785      12.35790605        0        0
S       67.22309514     -87.75286152      13.82755488        1        0
S       66.14470268     -89.55713799      10.88916775        2        0
Hf      65.09045654     -91.33062820      12.38881200        0        0
S       64.09050641     -89.50122380      13.85850832        1        0
S       63.00493705     -91.31381056      10.92484978        2        0
Hf      61.96028218     -93.08863810      12.42972506        0        0
S       60.96463448     -91.25858588      13.90155673        1        0
S       59.87712414     -93.07850483      10.96647072        2        0
Hf      58.84340434     -94.85789040      12.47291219        0        0
S       57.84866907     -93.03067928      13.94856364        1        0
S       56.76463534     -94.85551498      11.00750238        2        0
Hf      55.74211504     -96.64110929      12.51325157        0        0
S       54.74476623     -94.81899920      13.99351658        1        0
S       53.66794258     -96.64536225      11.04461685        2        0
Hf      52.65532323     -98.43696846      12.54858370        0        0
S       51.65241920     -96.62136300      14.03369921        1        0
S       50.58525112     -98.44597995      11.07642933        2        0
Hf      49.58008538    -100.24241710      12.57786948        0        0
S       48.56945268     -98.43435854      14.06752843        1        0
S       47.51352491    -100.25451328      11.10206226        2        0
Hf      46.51293097    -102.05422085      12.60056018        0        0
S       45.49314582    -100.25442115      14.09387423        1        0
S       44.44923838    -102.06773134      11.12106530        2        0
Hf      43.45024000    -103.86888303      12.61650332        0        0
S       42.42031330    -102.07771390      14.11223544        1        0
S       41.38872399    -103.88155717      11.13311633        2        0
Hf      40.38798201    -105.68219235      12.62525410        0        0
S       39.34708148    -103.89981845      14.12208853        1        0
S       38.32790783    -105.69116613      11.13749105        2        0
Hf      37.32148158    -107.48924381      12.62567315        0        0
S       36.26901816    -105.71553905      14.12234696        1        0
S       35.26152985    -107.49213890      11.13354127        2        0
Hf      34.24545363    -109.28579880      12.61728278        0        0
S       33.18181570    -107.51959618      14.11247121        1        0
S       32.18313032    -109.28220115      11.12258017        2        0
Hf      31.15504858    -111.07019032      12.60273739        0        0
S       30.08249627    -109.30875996      14.09518991        1        0
S       29.08734151    -111.06228239      11.10924543        2        0
Hf      28.04824393    -112.84434653      12.58846152        0        0
S       26.97125736    -111.08449710      14.07786112        1        0
S       25.97376050    -112.83615316      11.10000811        2        0
Hf      24.92809547    -114.61339907      12.58136267        0        0
S       23.85196936    -112.85305456      14.06871802        1        0
S       22.84858938    -114.60962421      11.09917758        2        0
Hf      21.80238478    -116.38523840      12.58386260        0        0
S       20.73071412    -114.62362640      14.07066676        1        0
S       19.72175530    -116.38917043      11.10547104        2        0
Hf      18.67948162    -118.16710750      12.59243066        0        0
S       17.61309523    -116.40419896      14.07976063        1        0
S       16.60048877    -118.17861654      11.11443934        2        0
Hf      12.43633834       0.08952711      12.60229366        0        0
S       14.50138717    -118.19611115      14.09058293        1        0
S       10.35930439       0.07294480      11.12313297        2        0
Hf       9.32630681      -1.71348699      12.61099943        0        0
S       11.39506584    -119.99608727      14.10038603        1        0
S        7.25079395      -1.73306856      11.13059250        2        0
Hf      34.19632139     -66.31566057      12.62173128        0        0
S       33.14892046     -64.53214968      14.11174617        1        0
S       32.13000485     -66.33961961      11.13498287        2        0
Hf      31.11489438     -68.14791929      12.61663106        0        0
S       30.07182619     -66.36099364      14.10606694        1        0
S       29.05127640     -68.17121193      11.12775254        2        0
Hf      28.03684722     -69.98249404      12.60762936        0        0
S       26.99734294     -68.19295949      14.09611278        1        0
S       25.97599545     -70.00097200      11.11562503        2        0
Hf      24.95850456     -71.81351601      12.59241342        0        0
S       23.92101600     -70.02262592      14.07966909        1        0
S       22.90099093     -71.82200000      11.09526494        2        0
Hf      21.87506045     -73.63393251      12.56645096        0        0
S       20.83800728     -71.84333428      14.05227985        1        0
S       19.82076174     -73.62814641      11.06293670        2        0
Hf      18.78067176     -75.43697388      12.52667611        0        0
S       17.74359240     -73.64757502      14.01072068        1        0
S       16.72783054     -75.41610437      11.01830491        2        0
Hf      15.67050315     -77.21912408      12.47536576        0        0
S       14.63422240     -75.43000231      13.95720426        1        0
S       13.61614105     -77.18695049      10.96606053        2        0
Hf      12.54356547     -78.98270284      12.41998020        0        0
S       11.51059625     -77.19128156      13.89991440        1        0
S       10.48435049     -78.94603653      10.91534086        2        0
Hf       9.40346524     -80.73489210      12.37191182        0        0
S        8.37759836     -78.93817571      13.85091863        1        0
S        7.33716259     -80.69922723      10.87687888        2        0
Hf       6.25712938     -82.48318843      12.34163720        0        0
S        5.23973737     -80.67930767      13.82043083        1        0
S        4.18391085     -82.44975553      10.85664803        2        0
Hf       3.11099395     -84.23151675      12.33087492        0        0
S       70.41861487     -82.42016210      13.80963387        1        0
S       69.34995468     -84.19974245      10.85438522        2        0
Hf      68.28577035     -85.98067402      12.33694854        0        0
S       67.28099976     -84.16282187      13.81569784        1        0
S       66.20082637     -85.95131616      10.86889664        2        0
Hf      65.14516004     -87.73120730      12.35959606        0        0
S       64.14704890     -85.90858869      13.83852772        1        0
S       63.05650148     -87.70716561      10.89892455        2        0
Hf      62.00950430     -89.48657719      12.39709579        0        0
S       61.01768389     -87.66162333      13.87688938        1        0
S       59.92111142     -89.47159799      10.93955595        2        0
Hf      58.88298936     -91.25275551      12.44230249        0        0
S       57.89458082     -89.42841307      13.92392316        1        0
S       56.79838348     -91.24918604      10.98327839        2        0
Hf      55.76898194     -93.03405336      12.48759325        0        0
S       54.77981563     -91.21280343      13.97152114        1        0
S       53.68960547     -93.04165138      11.02458697        2        0
Hf      52.66824292     -94.83055719      12.52898119        0        0
S       51.67408975     -93.01406764      14.01505806        1        0
S       50.59409170     -94.84724241      11.06091270        2        0
Hf      49.57923132     -96.63936616      12.56450649        0        0
S       48.57666102     -94.82900232      14.05244234        1        0
S       47.50976508     -96.66238677      11.09103059        2        0
Hf      46.49932814     -98.45666945      12.59290423        0        0
S       45.48618024     -96.65359590      14.08251057        1        0
S       44.43374497     -98.48306281      11.11427810        2        0
Hf      43.42551344    -100.27844051      12.61365229        0        0
S       42.40079254     -98.48348518      14.10471835        1        0
S       41.36291402    -100.30500802      11.13034398        2        0
Hf      40.35450142    -102.10030520      12.62662845        0        0
S       39.31778480    -100.31391498      14.11876565        1        0
S       38.29400474    -102.12347381      11.13881533        2        0
Hf      37.28238989    -103.91726498      12.63128271        0        0
S       36.23344677    -102.13962331      14.12387814        1        0
S       35.22296931    -103.93376580      11.13897021        2        0
Hf      34.20453366    -105.72444716      12.62686909        0        0
S       33.14360719    -103.95505095      14.11898449        1        0
S       32.14430740    -105.73257350      11.13099529        2        0
Hf      31.11593498    -107.51875267      12.61441710        0        0
S       30.04457657    -105.75558106      14.10480896        1        0
S       29.05196219    -107.51947150      11.11789865        2        0
Hf      28.01288097    -109.30041878      12.59866816        0        0
S       26.93462635    -107.54028521      14.08640431        1        0
S       25.94268943    -109.29710751      11.10555192        2        0
Hf      24.89563928    -111.07318287      12.58675005        0        0
S       23.81559630    -109.31332096      14.07218344        1        0
S       22.81928892    -111.07056257      11.09983932        2        0
Hf      21.76977277    -112.84392113      12.58384502        0        0
S       20.69260076    -111.08281772      14.06831563        1        0
S       19.69034287    -112.84621278      11.10244711        2        0
Hf      18.64418084    -114.62085064      12.58922821        0        0
S       17.57195522    -112.85808161      14.07409102        1        0
S       16.56528863    -114.62940220      11.11002435        2        0
Hf      15.52567148    -116.40856093      12.59824370        0        0
S       14.45806418    -114.64376689      14.08415108        1        0
S       13.44875010    -116.42144703      11.11866374        2        0
Hf      12.41571973    -118.20577920      12.60736720        0        0
S       11.35180123    -116.43776452      14.09442802        1        0
S       10.34048599    -118.22036269      11.12676219        2        0
Hf       6.18603105       0.04088579      12.61534160        0        0
S        8.25251931    -118.23679183      14.10343947        1        0
S        4.11249204       0.02557393      11.13357997        2        0
Hf       3.08989613      -1.76860398      12.62114865        0        0
S        5.16020620    -120.04098553      14.10996494        1        0
S        1.01889766      -1.78542515      11.13765215        2        0
Hf      34.16404434     -62.72870938      12.62263294        0        0
S       33.11151043     -60.94241309      14.11064721        1        0
S       32.09769879     -62.74436775      11.13586169        2        0
Hf      31.08682682     -64.55201735      12.61924516        0        0
S       30.03919471     -62.76208937      14.10703652        1        0
S       29.02325631     -64.56813577      11.13047403        2        0
Hf      28.01420692     -66.37994277      12.61190145        0        0
S       26.97118077     -64.58726462      14.09931144        1        0
S       25.95307529     -66.39302361      11.12097287        2        0
Hf      24.94319089     -68.20730802      12.59993300        0        0
S       23.90361433     -66.41303632      14.08690223        1        0
S       22.88473532     -68.21245782      11.10545578        2        0
Hf      21.86976611     -70.02751949      12.57998490        0        0
S       20.83201496     -68.23348791      14.06665393        1        0
S       19.81419175     -70.01997186      11.08031684        2        0
Hf      18.78862415     -71.83373245      12.54791808        0        0
S       17.75151641     -70.04189572      14.03445016        1        0
S       16.73500809     -71.81124476      11.04313455        2        0
Hf      15.69390858     -73.62109570      12.50281746        0        0
S       14.65731470     -71.83198958      13.98900769        1        0
S       13.63992995     -73.58567963      10.99547258        2        0
Hf      12.58183200     -75.38952579      12.44896089        0        0
S       11.54721945     -73.60127449      13.93476783        1        0
S       10.52426239     -75.34686170      10.94386247        2        0
Hf       9.45295072     -77.14414412      12.39575108        0        0
S        8.42398373     -75.35320736      13.88176845        1        0
S        7.38859508     -77.10046655      10.89892660        2        0
Hf       6.31206550     -78.89209554      12.35573555        0        0
S        5.29210351     -77.09519967      13.84206192        1        0
S        4.24018847     -78.85018021      10.86973905        2        0
Hf       3.16675207     -80.63822213      12.33552125        0        0
S        2.15563780     -78.83398731      13.82192053        1        0
S       69.40666070     -80.59801826      10.85895866        2        0
Hf      68.34090005     -82.38459517      12.33347053        0        0
S       67.33701706     -80.57389233      13.82038169        1        0
S       66.25649720     -82.34676299      10.86562895        2        0
Hf      65.19967789     -84.13257916      12.34803466        0        0
S       64.20261273     -82.31735099      13.83602958        1        0
S       63.11007400     -84.10040743      10.88873803        2        0
Hf      62.06232379     -85.88558072      12.37898846        0        0
S       61.07176032     -84.06753191      13.86806942        1        0
S       59.97072641     -85.86386971      10.92507716        2        0
Hf      58.93146343     -87.64946212      12.42176643        0        0
S       57.94526373     -85.83029822      13.91151208        1        0
S       56.84210728     -87.64177950      10.96786393        2        0
Hf      55.80983364     -89.42930741      12.46806658        0        0
S       54.82431570     -87.61106032      13.95792308        1        0
S       53.72555766     -89.43648815      11.00996913        2        0
Hf      52.69860515     -91.22642036      12.51149649        0        0
S       51.70958698     -89.41099135      14.00068703        1        0
S       50.62025981     -91.24681621      11.04721048        2        0
Hf      49.59728136     -93.03843741      12.54913572        0        0
S       48.60093493     -91.22733698      14.03704439        1        0
S       47.52447806     -93.06884759      11.07816858        2        0
Hf      46.50432320     -94.86112721      12.57984835        0        0
S       45.49790197     -93.05557247      14.06661614        1        0
S       44.43615813     -94.89766177      11.10265047        2        0
Hf      43.41774197     -96.68981104      12.60332541        0        0
S       42.39981002     -94.89081094      14.08966745        1        0
S       41.35320976     -96.72831475      11.12074320        2        0
Hf      40.33524635     -98.51969318      12.61957274        0        0
S       39.30522952     -96.72811198      14.10624610        1        0
S       38.27345243     -98.55589603      11.13225356        2        0
Hf      37.25404960    -100.34576448      12.62830866        0        0
S       36.21164164     -98.56224077      14.11562603        1        0
S       35.19417017    -100.37553723      11.13640221        2        0
Hf      34.17050270    -102.16289508      12.62853403        0        0
S       33.11566719    -100.38766448      14.11623222        1        0
S       32.11122530    -102.18331478      11.13242646        2        0
Hf      31.08012738    -103.96700928      12.61993343        0        0
S       30.01371126    -102.19908721      14.10710377        1        0
S       29.01899715    -103.97761528      11.12156792        2        0
Hf      27.97856419    -105.75679204      12.60522293        0        0
S       26.90309668    -103.99355267      14.09067761        1        0
S       25.91256141    -105.75996042      11.10828229        2        0
Hf      24.86373793    -107.53452391      12.59061348        0        0
S       23.78364008    -105.77285928      14.07390293        1        0
S       22.79139390    -107.53461420      11.09880751        2        0
Hf      21.73833493    -109.30575658      12.58276987        0        0
S       20.65870392    -107.54346974      14.06473643        1        0
S       19.66119056    -109.30753621      11.09734631        2        0
Hf      18.60981189    -111.07843594      12.58422927        0        0
S       17.53407762    -109.31450240      14.06626477        1        0
S       16.53153978    -111.08463104      11.10290375        2        0
Hf      15.48675987    -112.85933845      12.59179726        0        0
S       14.41552741    -111.09330085      14.07489181        1        0
S       13.41000126    -112.86903635      11.11129766        2        0
Hf      12.37361124    -114.64962121      12.60091745        0        0
S       11.30596809    -112.88043066      14.08540425        1        0
S       10.29870513    -114.65996272      11.11978282        2        0
Hf       9.27021116    -116.44635846      12.60950866        0        0
S        8.20559096    -114.67229735      14.09526008        1        0
S        7.19691112    -116.45564304      11.12750283        2        0
Hf       6.17538076    -118.24764314      12.61670233        0        0
S        5.11405388    -116.46765539      14.10334861        1        0
S        4.10427475    -118.25669419      11.13330984        2        0
Hf      37.20375092     -57.33778436      12.61620154        0        0
S       36.14259462     -55.55349928      14.10206356        1        0
S       35.13395875     -57.34355148      11.13194813        2        0
Hf      34.12187356     -59.14369866      12.61952529        0        0
S       33.06472061     -57.35438045      14.10572334        1        0
S       32.05512867     -59.15118130      11.13314719        2        0
Hf      31.04776804     -60.95765122      12.61839539        0        0
S       29.99513790     -59.16478495      14.10453251        1        0
S       28.98382946     -60.96654354      11.13007057        2        0
Hf      27.97937429     -62.77811622      12.61316446        0        0
S       26.93133223     -60.98275827      14.09912787        1        0
S       25.91766299     -62.78566960      11.12323341        2        0
Hf      24.91396305     -64.60069709      12.60418480        0        0
S       23.86997812     -62.80377481      14.09004322        1        0
S       22.85439419     -64.60252499      11.11205316        2        0
Hf      21.84828323     -66.41934177      12.58974334        0        0
S       20.80722674     -64.62234778      14.07575533        1        0
S       19.79112819     -66.41061875      11.09392694        2        0
Hf      18.77804815     -68.22745548      12.56611727        0        0
S       17.73874052     -66.43255465      14.05282176        1        0
S       16.72306070     -68.20481749      11.06565959        2        0
Hf      15.69779408     -70.01947107      12.53022082        0        0
S       14.65970853     -68.22841841      14.01816760        1        0
S       13.64342982     -69.98311082      11.02628131        2        0
Hf      12.60223103     -71.79340647      12.48300023        0        0
S       11.56599281     -70.00574997      13.97248949        1        0
S       10.54563203     -71.74732178      10.97925329        2        0
Hf       9.48889538     -73.55209481      12.43086268        0        0
S        8.45698284     -71.76477720      13.92227780        1        0
S        7.42647523     -73.50211606      10.93305578        2        0
Hf       6.35935330     -75.30140072      12.38518208        0        0
S        5.33563032     -73.51051641      13.87840807        1        0
S        4.28905096     -75.25166528      10.89776462        2        0
Hf       3.21918685     -77.04647487      12.35600040        0        0
S        2.20567040     -75.24951931      13.85023416        1        0
S       69.45986108     -76.99843281      10.87922579        2        0
Hf      68.39399761     -78.79051723      12.34586953        0        0
S       67.38992419     -76.98743351      13.84096188        1        0
S       66.31014189     -78.74521742      10.87851298        2        0
Hf      65.25214029     -80.53596733      12.35347538        0        0
S       64.25593264     -78.72854561      13.84999894        1        0
S       63.16273337     -80.49659120      10.89478770        2        0
Hf      62.11394119     -82.28656499      12.37780148        0        0
S       61.12381892     -80.47636330      13.87567437        1        0
S       60.02127343     -82.25821919      10.92529621        2        0
Hf      58.98137664     -84.04818108      12.41545319        0        0
S       57.99484071     -82.23602207      13.91360826        1        0
S       56.88928613     -84.03522368      10.96432260        2        0
Hf      55.85634413     -85.82640075      12.45912766        0        0
S       54.87027558     -84.01347639      13.95612963        1        0
S       53.76832149     -85.83055793      11.00442246        2        0
Hf      52.73941371     -87.62348231      12.50123118        0        0
S       51.75065066     -85.81164092      13.99558319        1        0
S       50.65723560     -87.64377819      11.03990975        2        0
Hf      49.62981494     -89.43779722      12.53734686        0        0
S       48.63549892     -87.62856676      14.02798147        1        0
S       47.55356603     -89.47117380      11.06866233        2        0
Hf      46.52637839     -91.26508317      12.56647062        0        0
S       45.52424161     -89.45937871      14.05331053        1        0
S       44.45523541     -91.30735037      11.09104985        2        0
Hf      43.42802852     -93.10011345      12.58913983        0        0
S       42.41648666     -91.29872567      14.07314974        1        0
S       41.36094521     -93.14671324      11.10805316        2        0
Hf      40.33364669     -94.93763925      12.60606785        0        0
S       39.31161530     -93.14149363      14.08862833        1        0
S       38.26973608     -94.98387620      11.12013366        2        0
Hf      37.24161891     -96.77240851      12.61724941        0        0
S       36.20818198     -94.98254824      14.09952907        1        0
S       35.18027303     -96.81363851      11.12666061        2        0
Hf      34.14952755     -98.59912494      12.62160396        0        0
S       33.10389735     -96.81649476      14.10413710        1        0
S       32.08996714     -98.63140051      11.12630255        2        0
Hf      31.05390211    -100.41308230      12.61768945        0        0
S       29.99601259     -98.63778834      14.10024844        1        0
S       28.99437258    -100.43438937      11.11866675        2        0
Hf      27.95062872    -102.21159845      12.60608184        0        0
S       26.88194053    -100.44212140      14.08778892        1        0
S       25.88821783    -102.22285680      11.10629977        2        0
Hf      24.83650575    -103.99547367      12.59116780        0        0
S       23.76043477    -102.22898587      14.07119875        1        0
S       22.76860785    -104.00021917      11.09467081        2        0
Hf      21.71154400    -105.76894756      12.57974360        0        0
S       20.63300761    -104.00288378      14.05828585        1        0
S       19.63797809    -105.77204038      11.08931891        2        0
Hf      18.58063487    -107.53907232      12.57690787        0        0
S       17.50404509    -105.77180186      14.05506690        1        0
S       16.50409027    -107.54427502      11.09206423        2        0
Hf      15.45208415    -109.31347348      12.58226866        0        0
S       14.37939854    -107.54419520      14.06126543        1        0
S       13.37595626    -109.32116248      11.09988206        2        0
Hf      12.33290320    -111.09595727      12.59127294        0        0
S       11.26373849    -109.32379174      14.07187785        1        0
S       10.25852312    -111.10342335      11.10898573        2        0
Hf       9.22533091    -112.88496934      12.60049012        0        0
S        8.15885282    -111.10815835      14.08290652        1        0
S        7.15247697    -112.88971549      11.11777002        2        0
Hf      40.24881183     -51.97383335      12.59897107        0        0
S       39.18356038     -50.19188672      14.08006220        1        0
S       38.17696405     -51.97521604      11.11558086        2        0
Hf      37.15549327     -53.76438283      12.60730340        0        0
S       36.09281247     -51.97624882      14.09032309        1        0
S       35.08554018     -53.76366643      11.12316787        2        0
Hf      34.07292996     -55.56057387      12.61294920        0        0
S       33.01334212     -53.76743083      14.09713777        1        0
S       32.00568850     -55.56073570      11.12714870        2        0
Hf      30.99977049     -57.36513400      12.61432688        0        0
S       29.94372442     -55.56891547      14.09887486        1        0
S       28.93528110     -57.36718634      11.12669858        2        0
Hf      27.93368940     -59.17779779      12.61141885        0        0
S       26.88155101     -57.37970524      14.09590229        1        0
S       25.87139577     -59.17986090      11.12243457        2        0
Hf      24.87198242     -60.99486358      12.60507430        0        0
S       23.82377756     -59.19551070      14.08942956        1        0
S       22.81153983     -60.99312390      11.11473110        2        0
Hf      21.81180778     -62.81071772      12.59495316        0        0
S       20.76710285     -61.01103087      14.07943431        1        0
S       19.75334265     -62.80069208      11.10230584        2        0
Hf      18.74984671     -64.61917094      12.57864950        0        0
S       17.70785976     -62.82094217      14.06394701        1        0
S       16.69341835     -64.59707264      11.08249797        2        0
Hf      15.68166765     -66.41460571      12.55277478        0        0
S       14.64178902     -64.62010346      14.04003862        1        0
S       13.62644636     -66.37915409      11.05308945        2        0
Hf      12.60194971     -68.19380968      12.51571087        0        0
S       11.56419853     -66.40416333      14.00611655        1        0
S       10.54569274     -68.14722306      11.01479147        2        0
Hf       9.50619359     -69.95755432      12.47043372        0        0
S        8.47177013     -68.17113864      13.96461625        1        0
S        7.44547958     -69.90448935      10.97293510        2        0
Hf       6.39281919     -71.70989225      12.42543391        0        0
S        5.36464533     -69.92304768      13.92316186        1        0
S        4.32457807     -71.65496150      10.93639271        2        0
Hf       3.26404365     -73.45556662      12.39118989        0        0
S        2.24538953     -71.66509400      13.89146303        1        0
S       69.50594580     -73.40169918      10.91287229        2        0
Hf      68.44392204     -75.19845544      12.37384127        0        0
S       67.43608289     -73.40328716      13.87591117        1        0
S       66.36065638     -75.14778887      10.90581527        2        0
Hf      65.30281738     -76.94209885      12.37472856        0        0
S       64.30472374     -75.14306664      13.87839919        1        0
S       63.21402187     -76.89789691      10.91550571        2        0
Hf      62.16376202     -78.69078779      12.39274827        0        0
S       61.17235210     -76.88913687      13.89749555        1        0
S       60.07144343     -78.65791700      10.93952940        2        0
Hf      59.02953631     -80.45024822      12.42420245        0        0
S       58.04075846     -78.64644855      13.92881655        1        0
S       56.93676370     -80.43322003      10.97289944        2        0
Hf      55.90221666     -82.22627113      12.46284564        0        0
S       54.91250821     -80.42077952      13.96579697        1        0
S       53.81228242     -82.22722528      11.00892128        2        0
Hf      52.78243955     -84.02211178      12.50121198        0        0
S       51.78951222     -82.21640051      14.00090917        1        0
S       50.69755695     -84.04044264      11.04123115        2        0
Hf      49.66888903     -85.83708967      12.53370264        0        0
S       48.67145389     -84.03264680      14.02881630        1        0
S       47.58963499     -85.87004955      11.06648527        2        0
Hf      46.55955301     -87.66723536      12.55867623        0        0
S       45.55682643     -85.86467702      14.04872941        1        0
S       44.48539076     -87.71090997      11.08484237        2        0
Hf      43.45316382     -89.50713238      12.57737747        0        0
S       42.44440844     -87.70668227      14.06287754        1        0
S       41.38319478     -89.55719368      11.09809712        2        0
Hf      40.34920925     -91.35121637      12.59158211        0        0
S       39.33331878     -89.55339241      14.07366153        1        0
S       38.28263315     -91.40313068      11.10769619        2        0
Hf      37.24714300     -93.19404676      12.60207033        0        0
S       36.22259450     -91.39986321      14.08198989        1        0
S       35.18352749     -93.24314994      11.11367246        2        0
Hf      34.14574219     -95.03013518      12.60803850        0        0
S       33.11079216     -93.24087294      14.08677840        1        0
S       32.08474555     -95.07196115      11.11467046        2        0
Hf      31.04272603     -96.85420189      12.60756353        0        0
S       29.99602307     -95.07084730      14.08555637        1        0
S       28.98339482     -96.88546573      11.10926624        2        0
Hf      27.93488660     -98.66231953      12.59947621        0        0
S       26.87649784     -96.88459860      14.07651208        1        0
S       25.87486517     -98.68225318      11.09822592        2        0
Hf      24.81892492    -100.45364551      12.58591104        0        0
S       23.75100372     -98.67960637      14.06141102        1        0
S       22.75517253    -100.46447978      11.08552394        2        0
Hf      21.69337338    -102.23111970      12.57258352        0        0
S       20.61999886    -100.45832141      14.04640411        1        0
S       19.62421388    -102.23722827      11.07680667        2        0
Hf      18.56050371    -104.00078929      12.56568800        0        0
S       17.48643329    -102.22738232      14.03858472        1        0
S       16.48703840    -104.00660037      11.07592834        2        0
Hf      15.42671018    -105.77021318      12.56789522        0        0
S       14.35517850    -103.99499609      14.04103655        1        0
S       13.35207217    -105.77735030      11.08223924        2        0
Hf      12.29986322    -107.54498911      12.57632816        0        0
S       11.23157867    -105.76713427      14.05091138        1        0
S       10.22635681    -107.55136225      11.09198585        2        0
Hf      43.32232566     -46.63276641      12.57120005        0        0
S       42.25692404     -44.84920474      14.04306818        1        0
S       41.25001987     -46.63741868      11.08590789        2        0
Hf      40.20925068     -48.41129433      12.58236880        0        0
S       39.14612129     -46.62291953      14.05706195        1        0
S       38.13798645     -48.41075192      11.09776076        2        0
Hf      37.10952657     -50.19281715      12.59330570        0        0
S       36.04843835     -48.39854691      14.07125538        1        0
S       35.03954375     -50.18808755      11.10899297        2        0
Hf      34.02270912     -51.97928007      12.60228859        0        0
S       32.96380073     -50.18040317      14.08292802        1        0
S       31.95498560     -51.97389182      11.11705777        2        0
Hf      30.94743879     -53.77432955      12.60705044        0        0
S       29.89095129     -51.97330317      14.08918033        1        0
S       28.88242474     -53.77048927      11.12018361        2        0
Hf      27.88120584     -55.57882261      12.60689064        0        0
S       26.82758575     -53.77702156      14.08952643        1        0
S       25.81847385     -55.57561891      11.11874263        2        0
Hf      24.82105143     -57.38966810      12.60290160        0        0
S       23.77083871     -55.58736978      14.08563854        1        0
S       22.76009350     -57.38399167      11.11387700        2        0
Hf      21.76424336     -59.20157297      12.59591704        0        0
S       20.71766646     -57.39910474      14.07884604        1        0
S       19.70492130     -59.18957545      11.10567373        2        0
Hf      18.70802054     -61.00878437      12.58504556        0        0
S       17.66481879     -59.20732580      14.06885933        1        0
S       16.65033458     -60.98702646      11.09271375        2        0
Hf      15.64890308     -62.80610754      12.56792027        0        0
S       14.60851339     -61.00778593      14.05395602        1        0
S       13.59245597     -62.77270062      11.07290613        2        0
Hf      12.58234105     -64.58995028      12.54210949        0        0
S       11.54416568     -62.79686594      14.03203823        1        0
S       10.52569501     -64.54555025      11.04523716        2        0
Hf       9.50323345     -66.35947642      12.50756543        0        0
S        8.46718248     -64.57180789      14.00244300        1        0
S        7.44363988     -66.30714843      11.01177595        2        0
Hf       6.40771166     -68.11666769      12.46894229        0        0
S        5.37512757     -66.33181240      13.96851023        1        0
S        4.34177184     -68.06059454      10.97869855        2        0
Hf       3.29477609     -69.86516526      12.43496904        0        0
S        2.26875006     -68.07961698      13.93807362        1        0
S       69.53880383     -69.80910833      10.95389569        2        0
Hf      68.48541567     -71.60891484      12.41358494        0        0
S       67.46908234     -69.82080835      13.91930265        1        0
S       66.40344172     -71.55599491      10.94274922        2        0
Hf      65.34910472     -73.35213795      12.40861533        0        0
S       64.34346622     -71.56147945      13.91645565        1        0
S       63.26127386     -73.30600437      10.94688828        2        0
Hf      62.21074986     -75.09984122      12.42031661        0        0
S       61.21347163     -73.30736095      13.92928788        1        0
S       60.11947170     -75.06517207      10.96450946        2        0
Hf      59.07499756     -76.85778536      12.44509604        0        0
S       58.08111366     -75.06372370      13.95363597        1        0
S       56.98291967     -76.83895915      10.99120403        2        0
Hf      55.94477149     -78.63151964      12.47727369        0        0
S       54.94923346     -76.83554998      13.98382581        1        0
S       53.85458850     -78.63070360      11.02155952        2        0
Hf      52.82194164     -80.42484052      12.51056962        0        0
S       51.82191640     -78.62754882      14.01378298        1        0
S       50.73581659     -80.44146132      11.04984247        2        0
Hf      49.70615280     -82.23827599      12.53899200        0        0
S       48.70123086     -80.44099042      14.03783687        1        0
S       47.62492691     -82.26966728      11.07179950        2        0
Hf      46.59482390     -84.06873428      12.55960267        0        0
S       45.58597537     -82.27212293      14.05367382        1        0
S       44.51819112     -84.11125605      11.08643005        2        0
Hf      43.48539559     -85.91100900      12.57331423        0        0
S       42.47355347     -84.11498797      14.06277989        1        0
S       41.41263674     -85.96085475      11.09538198        2        0
Hf      40.37658562     -87.75948624      12.58264938        0        0
S       39.36162847     -85.96402139      14.06795481        1        0
S       38.30711991     -87.81279251      11.10077635        2        0
Hf      37.26797491     -89.60869632      12.58939395        0        0
S       36.24850208     -87.81423420      14.07110676        1        0
S       35.20160338     -89.66129047      11.10351260        2        0
Hf      34.15916604     -91.45310657      12.59349005        0        0
S       33.13283653     -89.66067887      14.07218680        1        0
S       32.09592780     -91.50061213      11.10281147        2        0
Hf      31.04902541     -93.28708697      12.59326830        0        0
S       30.01337149     -91.49793648      14.06939327        1        0
S       28.98863932     -93.32554478      11.09700417        2        0
Hf      27.93542780     -95.10557433      12.58667035        0        0
S       26.88899456     -93.32031752      14.06042848        1        0
S       25.87634240     -95.13278737      11.08561422        2        0
Hf      24.81574373     -96.90586367      12.57400403        0        0
S       23.75904620     -95.12360587      14.04530146        1        0
S       22.75504790     -96.92251414      11.07126751        2        0
Hf      21.68807297     -98.68916702      12.55933603        0        0
S       20.62385245     -96.90797673      14.02817203        1        0
S       19.62320044     -98.69873495      11.05898503        2        0
Hf      18.55308195    -100.46052140      12.54872548        0        0
S       17.48552489     -98.67869781      14.01565041        1        0
S       16.48358872    -100.46764785      11.05351942        2        0
Hf      15.41493074    -102.22715896      12.54672101        0        0
S       14.34798499    -100.44345643      14.01283634        1        0
S       13.34273744    -102.23460051      11.05662625        2        0
Hf      46.44113051     -41.31205598      12.53472831        0        0
S       45.37877065     -39.52217678      13.99721625        1        0
S       44.36971752     -41.31944737      11.04431411        2        0
Hf      43.30673669     -43.07944594      12.54325757        0        0
S       42.24683565     -41.28620602      14.00655363        1        0
S       41.23538564     -43.08465232      11.05540556        2        0
Hf      40.18326704     -44.84998652      12.55602255        0        0
S       39.12557797     -43.05241599      14.02198434        1        0
S       38.11248164     -44.84981866      11.06987394        2        0
Hf      37.07347951     -46.62276055      12.57049202        0        0
S       36.01752871     -44.81980966      14.04051550        1        0
S       35.00339526     -46.61700991      11.08578036        2        0
Hf      33.97828015     -48.39959476      12.58449893        0        0
S       32.92378944     -46.59242877      14.05885350        1        0
S       31.90995763     -48.39130280      11.09986625        2        0
Hf      30.89710478     -50.18484072      12.59461898        0        0
S       29.84390789     -48.37655911      14.07226167        1        0
S       28.83146967     -50.17685993      11.10865282        2        0
Hf      27.82757946     -51.98054842      12.59874798        0        0
S       26.77605488     -50.17307979      14.07831385        1        0
S       25.76447851     -51.97293413      11.11144234        2        0
Hf      24.76648349     -53.78432926      12.59777735        0        0
S       23.71751658     -51.97782786      14.07843095        1        0
S       22.70523556     -53.77483272      11.10980987        2        0
Hf      21.71084092     -55.59119783      12.59355576        0        0
S       20.66518460     -53.78547489      14.07512154        1        0
S       19.65096113     -55.57686721      11.10517257        2        0
Hf      18.65797197     -57.39583237      12.58674516        0        0
S       17.61584985     -55.59146412      14.06976620        1        0
S       16.59923705     -57.37409685      11.09759409        2        0
Hf      15.60495298     -59.19369837      12.57646815        0        0
S       14.56587845     -57.39231300      14.06217383        1        0
S       13.54709000     -59.16294829      11.08595450        2        0
Hf      12.54798732     -60.98147572      12.56085341        0        0
S       11.51086669     -59.18529503      14.05075114        1        0
S       10.49026783     -60.94146440      11.06870174        2        0
Hf       9.48232339     -62.75739615      12.53821586        0        0
S        8.44591376     -60.96775675      14.03332247        1        0
S        7.42300712     -62.70943730      11.04539292        2        0
Hf       6.40304976     -64.52139980      12.50936053        0        0
S        5.36709363     -62.73723286      14.00947135        1        0
S        4.33914997     -64.46844694      11.01890317        2        0
Hf       3.30676949     -66.27536729      12.47980110        0        0
S        2.27308070     -64.49350760      13.98357183        1        0
S       69.55361465     -66.22118442      10.99572449        2        0
Hf      68.51147780     -68.02265388      12.45761126        0        0
S       67.48373894     -66.24049746      13.96393828        1        0
S       66.43180524     -67.97099888      10.98259992        2        0
Hf      65.38432823     -69.76762208      12.44876163        0        0
S       64.36572864     -67.98448305      13.95727728        1        0
S       63.29806644     -69.72244728      10.98282283        2        0
Hf      62.24998873     -71.51567727      12.45502186        0        0
S       61.24069489     -69.73195409      13.96508530        1        0
S       60.16007879     -71.48159615      10.99531254        2        0
Hf      59.11462199     -73.27304015      12.47352363        0        0
S       58.11097820     -71.48899675      13.98360953        1        0
S       57.02395129     -73.25426289      11.01578123        2        0
Hf      55.98221066     -75.04508537      12.49881158        0        0
S       54.97859771     -73.25996256      14.00709209        1        0
S       53.89294239     -75.04374796      11.03965314        2        0
Hf      52.85554390     -76.83538339      12.52594538        0        0
S       51.84748110     -75.04830730      14.03083570        1        0
S       50.76945981     -76.85096436      11.06282134        2        0
Hf      49.73638015     -78.64529053      12.55007033        0        0
S       48.72255439     -76.85667637      14.05075255        1        0
S       47.65443808     -78.67516243      11.08151080        2        0
Hf      46.62373141     -80.47312058      12.56741693        0        0
S       45.60559708     -78.68384643      14.06395351        1        0
S       44.54576688     -80.51373894      11.09367294        2        0
Hf      43.51456137     -82.31455392      12.57754278        0        0
S       42.49449154     -80.52490972      14.07040524        1        0
S       41.43988136     -82.36247233      11.09985052        2        0
Hf      40.40602172     -84.16433879      12.58257997        0        0
S       39.38563587     -82.37412534      14.07207450        1        0
S       38.33411289     -84.21626684      11.10184937        2        0
Hf      37.29636604     -86.01715458      12.58472230        0        0
S       36.27553922     -84.22629238      14.07084256        1        0
S       35.22723127     -86.06963956      11.10088901        2        0
Hf      34.18473404     -87.86757179      12.58474948        0        0
S       33.16153809     -86.07648711      14.06724260        1        0
S       32.11881866     -87.91676231      11.09675255        2        0
Hf      31.07046692     -89.70989509      12.58162385        0        0
S       30.04194314     -87.91941201      14.06016561        1        0
S       29.00813511     -89.75177433      11.08804532        2        0
Hf      27.95247777     -91.53837582      12.57330367        0        0
S       26.91599848     -89.74921885      14.04764454        1        0
S       25.89302694     -91.56983229      11.07377046        2        0
Hf      24.82904618     -93.34855871      12.55899446        0        0
S       23.78371785     -91.56046986      14.02906650        1        0
S       22.77009873     -93.36886262      11.05561280        2        0
Hf      21.69862628     -95.13943879      12.54146608        0        0
S       20.64563745     -93.35098205      14.00739065        1        0
S       19.63717665     -95.15092304      11.03811259        2        0
Hf      18.56126671     -96.91448620      12.52620711        0        0
S       17.50354534     -95.12423927      13.98856884        1        0
S       16.49572655     -96.92172218      11.02632647        2        0
Hf      49.59603085     -35.99705158      12.50723815        0        0
S       48.54249766     -34.20186891      13.96672513        1        0
S       47.53029175     -36.00259207      11.00778040        2        0
Hf      46.45231535     -37.76077213      12.50083778        0        0
S       45.39896359     -35.96160788      13.95756191        1        0
S       44.38333250     -37.76663321      11.00642676        2        0
Hf      43.31098424     -39.52346256      12.50524458        0        0
S       42.25981534     -37.71981081      13.96099605        1        0
S       41.24046368     -39.52843464      11.01494140        2        0
Hf      40.17728222     -41.28750546      12.51794245        0        0
S       39.12845160     -39.47927331      13.97507970        1        0
S       38.10639922     -41.28827419      11.03055622        2        0
Hf      37.05536743     -43.05273913      12.53544430        0        0
S       36.00819545     -41.23967748      13.99628750        1        0
S       34.98457059     -43.04794525      11.05058724        2        0
Hf      33.94797561     -44.82068746      12.55521091        0        0
S       32.90178605     -43.00369354      14.02107406        1        0
S       31.87842919     -44.81219420      11.07156280        2        0
Hf      30.85644587     -46.59604006      12.57295109        0        0
S       29.81070453     -44.77832353      14.04367148        1        0
S       28.78959003     -46.58637957      11.08844412        2        0
Hf      27.77961366     -48.38226719      12.58421379        0        0
S       26.73436889     -46.56678555      14.05879443        1        0
S       25.71571175     -48.37204014      11.09820154        2        0
Hf      24.71434080     -50.17809587      12.58849244        0        0
S       23.67043731     -48.36562302      14.06602544        1        0
S       22.65260036     -50.16596913      11.10176119        2        0
Hf      21.65718893     -51.97906922      12.58816855        0        0
S       20.61564976     -50.16923407      14.06825310        1        0
S       19.59671500     -51.96313768      11.10150938        2        0
Hf      18.60513087     -53.78032566      12.58539958        0        0
S       17.56645986     -51.97320167      14.06827072        1        0
S       16.54538630     -53.75913414      11.09898360        2        0
Hf      15.55529371     -55.57799878      12.58084582        0        0
S       14.51909561     -53.77459857      14.06728988        1        0
S       13.49597739     -55.55069799      11.09424757        2        0
Hf      12.50431748     -57.36928633      12.57367656        0        0
S       11.46931310     -55.57128223      14.06459815        1        0
S       10.44518449     -57.33537356      11.08606181        2        0
Hf       9.44799498     -59.15201328      12.56185851        0        0
S        8.41228917     -57.36094670      14.05776927        1        0
S        7.38826695     -59.11145784      11.07266832        2        0
Hf       6.38133733     -60.92452329      12.54370230        0        0
S        5.34344330     -59.14053318      14.04422033        1        0
S        4.31889885     -60.87854844      11.05411856        2        0
Hf       3.29959674     -62.68660984      12.52098658        0        0
S        2.25976745     -60.90759303      14.02468983        1        0
S       69.54952766     -62.63815009      11.03443209        2        0
Hf      68.51833920     -64.44029735      12.50019384        0        0
S       67.47942844     -62.66324192      14.00556929        1        0
S       66.44198613     -64.39324785      11.02047151        2        0
Hf      65.40227499     -66.18952631      12.48885928        0        0
S       64.36849529     -64.41281526      13.99536774        1        0
S       63.31855094     -66.14805973      11.01756174        2        0
Hf      62.27477437     -67.93970385      12.49078578        0        0
S       61.24885901     -66.16324614      13.99842628        1        0
S       60.18667454     -67.90833677      11.02617234        2        0
Hf      59.14248679     -69.69744896      12.50433557        0        0
S       58.12363697     -67.92166235      14.01244835        1        0
S       57.05355427     -69.68026786      11.04213166        2        0
Hf      56.01046683     -71.46861948      12.52393373        0        0
S       54.99477901     -69.69308266      14.03114811        1        0
S       53.92292709     -71.46753715      11.06049234        2        0
Hf      52.88162021     -73.25631412      12.54478078        0        0
S       51.86428742     -71.47939427      14.04947656        1        0
S       50.79660483     -73.27085824      11.07815965        2        0
Hf      49.75849834     -75.06174886      12.56372513        0        0
S       48.73647442     -73.28227464      14.06481810        1        0
S       47.67681350     -75.08972228      11.09290756        2        0
Hf      46.64278873     -76.88453066      12.57800050        0        0
S       45.61608973     -75.10281295      14.07548298        1        0
S       44.56455596     -76.92277266      11.10294831        2        0
Hf      43.53342735     -78.72194330      12.58621044        0        0
S       42.50423949     -76.93876790      14.08074920        1        0
S       41.45806427     -78.76723166      11.10783313        2        0
Hf      40.42730832     -80.56960302      12.58912976        0        0
S       39.39816132     -78.78524814      14.08132699        1        0
S       38.35418657     -80.61898419      11.10841934        2        0
Hf      37.32120367     -82.42261383      12.58848097        0        0
S       36.29356555     -80.63697057      14.07842601        1        0
S       35.25021761     -82.47309055      11.10558883        2        0
Hf      34.21257411     -84.27585860      12.58512821        0        0
S       33.18607012     -82.48891400      14.07234104        1        0
S       32.14432687     -84.32403061      11.09903568        2        0
Hf      31.09971023     -86.12374516      12.57839039        0        0
S       30.07211873     -84.33581673      14.06192652        1        0
S       29.03512889     -86.16582813      11.08726995        2        0
Hf      27.98141725     -87.96021649      12.56642304        0        0
S       26.94975984     -86.17164094      14.04511727        1        0
S       25.92077287     -87.99269408      11.06889021        2        0
Hf      24.85673218     -89.77961657      12.54795328        0        0
S       23.81913191     -87.99005910      14.02095011        1        0
S       22.79843875     -89.80068286      11.04496879        2        0
Hf      21.72479039     -91.57877619      12.52491897        0        0
S       20.68142788     -89.78688592      13.99196759        1        0
S       19.66579755     -91.58955713      11.01997644        2        0
Hf      52.76952123     -30.66261422      12.50578910        0        0
S       51.72756093     -28.86845610      13.97152360        1        0
S       50.71041744     -30.66792096      11.00039473        2        0
Hf      49.62717151     -32.43732611      12.48134644        0        0
S       48.58311612     -30.63795325      13.94111554        1        0
S       47.56467889     -32.43810556      10.97856982        2        0
Hf      46.48105694     -34.20094999      12.46526677        0        0
S       45.43742119     -32.39586439      13.92047005        1        0
S       44.41466652     -34.20184216      10.96745549        2        0
Hf      43.33528094     -35.96070245      12.46147268        0        0
S       42.29416686     -34.14951657      13.91382418        1        0
S       41.26569402     -35.96252271      10.96914640        2        0
Hf      40.19390927     -37.72023483      12.47038800        0        0
S       39.15581944     -35.90310980      13.92202331        1        0
S       38.12237573     -37.72023906      10.98254120        2        0
Hf      37.06075307     -39.47988890      12.48870701        0        0
S       36.02488548     -37.65768145      13.94232276        1        0
S       34.98832787     -39.47580803      11.00443207        2        0
Hf      33.93962508     -41.24075576      12.51277109        0        0
S       32.90485904     -39.41478351      13.97065409        1        0
S       31.86772461     -41.23313051      11.03084843        2        0
Hf      30.83395665     -43.00702910      12.53825673        0        0
S       29.79932600     -41.18007314      14.00142709        1        0
S       28.76454616     -42.99767188      11.05633319        2        0
Hf      27.74516393     -44.78342311      12.55920739        0        0
S       26.71019277     -42.95900652      14.02763256        1        0
S       25.67918910     -44.77296762      11.07572911        2        0
Hf      24.67144312     -46.57063753      12.57223640        0        0
S       23.63644887     -44.75083930      14.04565833        1        0
S       22.60824631     -46.55824867      11.08763325        2        0
Hf      21.60918186     -48.36526841      12.57867532        0        0
S       20.57495483     -46.55045464      14.05688340        1        0
S       19.54751347     -48.34989019      11.09415883        2        0
Hf      18.55473970     -50.16301985      12.58157084        0        0
S       17.52177535     -48.35306850      14.06449334        1        0
S       16.49370350     -50.14416527      11.09776075        2        0
Hf      15.50486247     -51.96050892      12.58289722        0        0
S       14.47287793     -50.15576800      14.07062356        1        0
S       13.44409609     -51.93811474      11.09954817        2        0
Hf      12.45627950     -53.75530409      12.58286794        0        0
S       11.42405835     -51.95658694      14.07545954        1        0
S       10.39576580     -53.72906028      11.09897092        2        0
Hf       9.40518222     -55.54507409      12.57992656        0        0
S        8.37074704     -53.75345096      14.07710658        1        0
S        7.34476926     -55.51420548      11.09411313        2        0
Hf       6.34688974     -57.32715088      12.57146600        0        0
S        5.30816250     -55.54328987      14.07242790        1        0
S        4.28538184     -57.29131882      11.08338072        2        0
Hf       3.27617376     -59.09943490      12.55647015        0        0
S        2.23217172     -57.32239052      14.05973546        1        0
S       69.52903262     -59.06006237      11.06823223        2        0
Hf      68.50690242     -60.86207583      12.53858510        0        0
S       67.45908586     -59.08916980      14.04233653        1        0
S       66.43459500     -60.82250096      11.05418296        2        0
Hf      65.40142489     -62.61795633      12.52532294        0        0
S       64.35378029     -60.84662547      14.02855255        1        0
S       63.32139108     -62.58239288      11.04789357        2        0
Hf      62.28145151     -64.37206216      12.52287961        0        0
S       61.23830679     -62.60125579      14.02576151        1        0
S       60.19597799     -64.34501170      11.05238757        2        0
Hf      59.15359387     -66.13111386      12.53195057        0        0
S       58.11686733     -64.36094908      14.03478645        1        0
S       57.06662767     -66.11662876      11.06484640        2        0
Hf      56.02409013     -67.90185631      12.54750655        0        0
S       54.99260405     -66.13250453      14.05010147        1        0
S       53.93853944     -67.90170265      11.07970991        2        0
Hf      52.89623497     -69.68764635      12.56383959        0        0
S       51.86684025     -67.91805780      14.06546179        1        0
S       50.81297291     -69.70110188      11.09338390        2        0
Hf      49.77170388     -71.48889322      12.57809607        0        0
S       48.74109690     -69.71714880      14.07779851        1        0
S       47.69097311     -71.51413303      11.10453998        2        0
Hf      46.65282769     -73.30545185      12.58901338        0        0
S       45.61930275     -71.53060048      14.08635531        1        0
S       44.57490323     -73.34020866      11.11237177        2        0
Hf      43.54130412     -75.13638690      12.59567039        0        0
S       42.50534537     -73.35887381      14.09086324        1        0
S       41.46604552     -75.17806726      11.11635569        2        0
Hf      40.43614943     -76.97890901      12.59795803        0        0
S       39.39956965     -75.19943068      14.09143501        1        0
S       38.36300205     -77.02486509      11.11665063        2        0
Hf      37.33423501     -78.82886112      12.59659812        0        0
S       36.29892232     -77.04773415      14.08863496        1        0
S       35.26284380     -78.87637478      11.11365803        2        0
Hf      34.23193621     -80.68153740      12.59216856        0        0
S       33.19874346     -78.89881174      14.08253710        1        0
S       32.16264338     -80.72745166      11.10687245        2        0
Hf      31.12587384     -82.53168455      12.58383509        0        0
S       30.09410343     -80.74743707      14.07168511        1        0
S       29.05974155     -82.57226727      11.09433064        2        0
Hf      28.01328692     -84.37326174      12.56936706        0        0
S       26.98084013     -82.58759074      14.05323312        1        0
S       25.95135988     -84.40463257      11.07352368        2        0
Hf      24.89237118     -86.19978690      12.54664864        0        0
S       23.85721141     -84.41225344      14.02492196        1        0
S       22.83413886     -86.21936279      11.04427270        2        0
Hf      55.94372217     -25.28887654      12.53448726        0        0
S       54.90710967     -23.50125778      14.01216861        1        0
S       53.88676454     -25.30087191      11.02966864        2        0
Hf      52.81178626     -27.08775850      12.49916892        0        0
S       51.77372292     -25.29545028      13.96989863        1        0
S       50.75485087     -27.08848128      10.99210594        2        0
Hf      49.67093401     -28.86639092      12.46424026        0        0
S       48.63284131     -27.06748004      13.92795182        1        0
S       47.61123269     -28.86038746      10.95885277        2        0
Hf      46.52431975     -30.63065455      12.43633640        0        0
S       45.48814283     -28.82459496      13.89446766        1        0
S       44.46041873     -30.62349388      10.93575495        2        0
Hf      43.37626876     -32.38845576      12.42079858        0        0
S       42.34367307     -30.57512837      13.87526012        1        0
S       41.30787805     -32.38316418      10.92681993        2        0
Hf      40.23050215     -34.14501424      12.42083377        0        0
S       39.20196194     -32.32443321      13.87312227        1        0
S       38.15831693     -34.14065582      10.93318469        2        0
Hf      37.08964563     -35.90124212      12.43557020        0        0
S       36.06454183     -34.07425596      13.88740358        1        0
S       35.01500535     -35.89539507      10.95287023        2        0
Hf      33.95672432     -37.65739779      12.46081861        0        0
S       32.93391569     -35.82592578      13.91473946        1        0
S       31.88145203     -37.64932900      10.98157382        2        0
Hf      30.83611904     -39.41661188      12.49151090        0        0
S       29.81427093     -37.58351834      13.94977855        1        0
S       28.76256750     -39.40745751      11.01353382        2        0
Hf      27.73188039     -41.18394734      12.52172209        0        0
S       26.70970305     -39.35271749      13.98546700        1        0
S       25.66184976     -41.17460315      11.04268796        2        0
Hf      24.64501695     -42.96244246      12.54602748        0        0
S       23.62183261     -41.13609195      14.01577757        1        0
S       22.57854387     -42.95233713      11.06534148        2        0
Hf      21.57308368     -44.75080820      12.56283281        0        0
S       20.54886296     -42.93092924      14.03905789        1        0
S       19.50892143     -44.73896188      11.08157471        2        0
Hf      18.51215026     -46.54546566      12.57428601        0        0
S       17.48698868     -44.73246610      14.05703198        1        0
S       16.44917068     -46.53169826      11.09338674        2        0
Hf      15.45845614     -48.34326887      12.58288828        0        0
S       14.43199061     -46.53714072      14.07169099        1        0
S       13.39612908     -48.32792379      11.10229688        2        0
Hf      12.40851024     -50.14183214      12.58964651        0        0
S       11.37973340     -48.34269842      14.08369748        1        0
S       10.34680845     -50.12487464      11.10841778        2        0
Hf       9.35864671     -51.93870572      12.59380414        0        0
S        8.32585188     -50.14697355      14.09203392        1        0
S        7.29761874     -51.91914451      11.11045498        2        0
Hf       6.30451540     -53.73066781      12.59309041        0        0
S        5.26559773     -51.94692264      14.09418647        1        0
S        4.24356277     -53.70711420      11.10644842        2        0
Hf       3.24089549     -55.51426563      12.58525287        0        0
S        2.19429016     -53.73835204      14.08761223        1        0
S       69.49620838     -55.48652702      11.09605712        2        0
Hf      68.48075604     -57.28768707      12.57122231        0        0
S       67.42678934     -55.51766193      14.07300703        1        0
S       66.41261660     -57.25781210      11.08276359        2        0
Hf      65.38439660     -59.05218516      12.55675160        0        0
S       64.32617117     -57.28505451      14.05662227        1        0
S       63.30891635     -59.02395947      11.07309155        2        0
Hf      62.27139532     -60.81183126      12.54938184        0        0
S       61.21380816     -59.04547277      14.04735087        1        0
S       60.18946461     -60.78972490      11.07241040        2        0
Hf      59.14768347     -62.57299316      12.55293685        0        0
S       58.09461640     -60.80675189      14.04984873        1        0
S       57.06294275     -62.56129352      11.08071823        2        0
Hf      56.02072148     -64.34323644      12.56462904        0        0
S       54.97329005     -62.57730755      14.06123415        1        0
S       53.93688265     -64.34407145      11.09305685        2        0
Hf      52.89536469     -66.12724143      12.57839376        0        0
S       51.85236095     -64.36143648      14.07495588        1        0
S       50.81378572     -66.13972366      11.10481947        2        0
Hf      49.77279441     -67.92509307      12.59023354        0        0
S       48.73201953     -66.15808268      14.08658027        1        0
S       47.69330231     -67.94723936      11.11419858        2        0
Hf      46.65376891     -69.73575491      12.59899431        0        0
S       45.61330757     -67.96593245      14.09479828        1        0
S       44.57635885     -69.76592946      11.12081734        2        0
Hf      43.54046681     -71.55905564      12.60450529        0        0
S       42.49945461     -69.78589131      14.09948198        1        0
S       41.46545589     -71.59568321      11.12434592        2        0
Hf      40.43446740     -73.39415881      12.60658617        0        0
S       39.39323436     -71.61812933      14.10059969        1        0
S       38.36175640     -73.43535938      11.12467446        2        0
Hf      37.33467485     -75.23836699      12.60544292        0        0
S       36.29429506     -73.46003772      14.09842494        1        0
S       35.26387656     -75.28178509      11.12199966        2        0
Hf      34.23793635     -77.08755509      12.60134289        0        0
S       33.19934812     -75.30728008      14.09313577        1        0
S       32.16903494     -77.13023938      11.11598389        2        0
Hf      31.14033666     -78.93681782      12.59347433        0        0
S       30.10355667     -77.15484398      14.08358793        1        0
S       29.07406236     -78.97503028      11.10467458        2        0
Hf      28.03775243     -80.78038494      12.57927319        0        0
S       27.00170683     -78.99692797      14.06656759        1        0
S       25.97534749     -80.80981709      11.08459428        2        0
Hf      59.08947065     -19.87532526      12.57493218        0        0
S       58.05192252     -18.09142564      14.06141831        1        0
S       57.02940230     -19.89773447      11.07708371        2        0
Hf      55.97897465     -21.69961595      12.54549286        0        0
S       54.94093120     -19.91405025      14.02744095        1        0
S       53.92274440     -21.70835531      11.04059754        2        0
Hf      52.85614742     -23.50348109      12.50504304        0        0
S       51.81819333     -21.71445141      13.98118941        1        0
S       50.80108073     -23.49904038      10.99642206        2        0
Hf      49.72117794     -25.28566060      12.46049467        0        0
S       48.68480894     -23.49062546      13.93014218        1        0
S       47.66396493     -25.27237357      10.95271424        2        0
Hf      46.57709915     -27.05081960      12.42049344        0        0
S       45.54431185     -25.24830055      13.88449106        1        0
S       44.51545294     -27.03464934      10.91752035        2        0
Hf      43.42880326     -28.80699867      12.39216711        0        0
S       42.40124077     -26.99679042      13.85272729        1        0
S       41.36172381     -28.79228197      10.89667720        2        0
Hf      40.28096651     -30.56102889      12.38023718        0        0
S       39.25862607     -28.74314307      13.83892980        1        0
S       38.20861230     -30.54866382      10.89270014        2        0
Hf      37.13620084     -32.31515050      12.38597067        0        0
S       36.11834810     -30.48986842      13.84315228        1        0
S       35.05957741     -32.30380086      10.90525478        2        0
Hf      33.99595582     -34.06890866      12.40727095        0        0
S       32.98207159     -32.23758677      13.86393367        1        0
S       31.91695748     -34.05741726      10.93161390        2        0
Hf      30.86340653     -35.82366314      12.43929286        0        0
S       29.85261116     -33.98918847      13.89794058        1        0
S       28.78474255     -35.81257218      10.96638082        2        0
Hf      27.74370048     -37.58401709      12.47566771        0        0
S       26.73414604     -35.75012348      13.93869652        1        0
S       25.66797839     -37.57480297      11.00274857        2        0
Hf      24.64078411     -39.35482639      12.51019559        0        0
S       23.63042822     -37.52493248      13.97891471        1        0
S       22.56907881     -39.34772933      11.03553013        2        0
Hf      21.55484718     -41.13745640      12.53902365        0        0
S       20.54227989     -39.31389261      14.01427302        1        0
S       19.48657051     -41.13133670      11.06266427        2        0
Hf      18.48294322     -42.92966266      12.56166777        0        0
S       17.46731464     -41.11361058      14.04394261        1        0
S       16.41703385     -42.92367884      11.08436852        2        0
Hf      15.42119074     -44.72837490      12.57950272        0        0
S       14.40171281     -42.92021895      14.06839733        1        0
S       13.35697423     -44.72248198      11.10140850        2        0
Hf      12.36584166     -46.53098261      12.59358225        0        0
S       11.34152990     -44.73073423      14.08792529        1        0
S       10.30305333     -46.52505277      11.11409127        2        0
Hf       9.31319702     -48.33481929      12.60386858        0        0
S        8.28268752     -46.54253250      14.10208071        1        0
S        7.25169444     -48.32777337      11.12187735        2        0
Hf       6.25908966     -50.13635932      12.60905373        0        0
S        5.22066061     -48.35233706      14.10945616        1        0
S        4.19846294     -50.12626685      11.12332085        2        0
Hf       3.19855559     -51.93138915      12.60702472        0        0
S        2.15066552     -50.15570669      14.10793844        1        0
S       69.45565151     -51.91673126      11.11736276        2        0
Hf      68.44430952     -53.71644863      12.59705185        0        0
S       67.38673894     -51.94789876      14.09678865        1        0
S       66.37980249     -53.69774065      11.10564643        2        0
Hf      65.35524348     -55.49091773      12.58257877        0        0
S       64.29018973     -53.72663284      14.07968695        1        0
S       63.28446701     -55.47095018      11.09349159        2        0
Hf      62.24860350     -57.25747515      12.57072129        0        0
S       61.18070720     -55.49457211      14.06494958        1        0
S       60.17085002     -57.24045805      11.08739280        2        0
Hf      59.12859555     -59.02164791      12.56784203        0        0
S       58.06287549     -57.25854562      14.06014312        1        0
S       57.04641006     -59.01213248      11.09041399        2        0
Hf      56.00310226     -60.79122018      12.57456622        0        0
S       54.94244009     -59.02762169      14.06619657        1        0
S       53.92054887     -60.79222220      11.09973729        2        0
Hf      52.87915393     -62.57269166      12.58598391        0        0
S       51.82379741     -60.80875722      14.07779798        1        0
S       50.79861685     -62.58390717      11.11039042        2        0
Hf      49.75930158     -64.36731725      12.59708289        0        0
S       48.70804216     -62.60242317      14.08946499        1        0
S       47.68079812     -64.38643193      11.11954518        2        0
Hf      46.64305620     -66.17309945      12.60569050        0        0
S       45.59459431     -64.40592108      14.09875391        1        0
S       44.56620284     -66.19830928      11.12645909        2        0
Hf      43.53089250     -67.98909021      12.61141883        0        0
S       42.48432072     -66.21848647      14.10497862        1        0
S       41.45601938     -68.01953662      11.13068868        2        0
Hf      40.42478606     -69.81559783      12.61406637        0        0
S       39.37972584     -68.04143747      14.10767941        1        0
S       38.35238089     -69.85044577      11.13172031        2        0
Hf      37.32580654     -71.65190046      12.61349585        0        0
S       36.28239127     -69.87463309      14.10662266        1        0
S       35.25579936     -71.68961566      11.12951214        2        0
Hf      34.23251825     -73.49514607      12.60997101        0        0
S       33.19111551     -71.71524069      14.10214827        1        0
S       32.16468008     -73.53319590      11.12417332        2        0
Hf      31.14169688     -75.34091520      12.60314807        0        0
S       30.10225079     -73.55884330      14.09394241        1        0
S       29.07633705     -75.37566989      11.11444608        2        0
Hf      62.19018171     -14.43891490      12.60251470        0        0
S       61.15100911     -12.65501425      14.09244124        1        0
S       60.12691489     -14.46837656      11.11171222        2        0
Hf      59.10025590     -16.27725479      12.58720970        0        0
S       58.06181411     -14.49194412      14.07489525        1        0
S       57.04075619     -16.29697461      11.09045073        2        0
Hf      56.00306067     -18.10384358      12.56052610        0        0
S       54.96436054     -16.31773643      14.04502118        1        0
S       53.94749361     -18.10963412      11.05646493        2        0
Hf      52.89378416     -19.91180275      12.52018601        0        0
S       51.85519028     -18.12433969      14.00057029        1        0
S       50.84018016     -19.90280288      11.01096553        2        0
Hf      49.76986194     -21.69772457      12.47052256        0        0
S       48.73287484     -19.90683880      13.94609317        1        0
S       47.71486641     -21.67764058      10.96073604        2        0
Hf      46.63261014     -23.46444301      12.42054927        0        0
S       45.59952427     -21.66779544      13.89155569        1        0
S       44.57320279     -23.43974601      10.91518420        2        0
Hf      43.48682483     -25.21958391      12.38011365        0        0
S       42.46020928     -23.41579485      13.84828856        1        0
S       41.42124820     -25.19557556      10.88299473        2        0
Hf      40.33858328     -26.97107959      12.35642936        0        0
S       39.31877215     -25.15974995      13.82357118        1        0
S       38.26675125     -26.94948789      10.86835742        2        0
Hf      37.19215459     -28.72293071      12.35117945        0        0
S       36.17766834     -26.90406431      13.81759961        1        0
S       35.11474569     -28.70333894      10.87125599        2        0
Hf      34.04875439     -30.47519702      12.36336793        0        0
S       33.03914192     -28.64937114      13.82860919        1        0
S       31.96698529     -30.45712236      10.89057514        2        0
Hf      30.90944512     -32.22773372      12.39106426        0        0
S       29.90506886     -30.39689789      13.85598375        1        0
S       28.82590706     -32.21188825      10.92329921        2        0
Hf      27.77810995     -33.98368891      12.42921431        0        0
S       26.77784424     -32.15134379      13.89620360        1        0
S       25.69621962     -33.97212583      10.96299936        2        0
Hf      24.66005990     -35.74877679      12.47043531        0        0
S       23.66103858     -33.91875862      13.94159446        1        0
S       22.58211653     -35.74298045      11.00283652        2        0
Hf      21.55828826     -37.52676912      12.50914626        0        0
S       20.55747476     -35.70178462      13.98554845        1        0
S       19.48469106     -37.52610566      11.03896095        2        0
Hf      18.47207393     -39.31722733      12.54278148        0        0
S       17.46704910     -37.49888777      14.02501713        1        0
S       16.40224507     -39.32010851      11.06995368        2        0
Hf      15.39839868     -41.11738865      12.57070450        0        0
S       14.38733154     -39.30666449      14.05872041        1        0
S       13.33168594     -41.12258837      11.09525423        2        0
Hf      12.33362547     -42.92423495      12.59281965        0        0
S       11.31514052     -41.12169457      14.08572905        1        0
S       10.26948892     -42.93080334      11.11456384        2        0
Hf       9.27408032     -44.73472028      12.60913212        0        0
S        8.24703124     -42.94064646      14.10549494        1        0
S        7.21201444     -44.74118217      11.12763783        2        0
Hf       6.21579860     -46.54514364      12.61924007        0        0
S        5.17902162     -44.75970842      14.11746121        1        0
S        4.15524172     -46.54916459      11.13376085        2        0
Hf       3.15419341     -48.35093547      12.62186176        0        0
S        2.10660207     -46.57417698      14.12042586        1        0
S       69.41238310     -48.35006426      11.13192109        2        0
Hf      68.40220842     -50.14759965      12.61581312        0        0
S       67.34354137     -48.37880822      14.11327733        1        0
S       66.34045138     -50.14090571      11.12257616        2        0
Hf      65.31810643     -51.93270586      12.60262022        0        0
S       64.24986180     -50.16954586      14.09757581        1        0
S       63.25157779     -51.92174151      11.10947252        2        0
Hf      62.21712306     -53.70724520      12.58790226        0        0
S       61.14316755     -51.94652180      14.07966453        1        0
S       60.14379783     -53.69563956      11.09895969        2        0
Hf      59.10092917     -55.47552213      12.57898730        0        0
S       58.02658900     -53.71481927      14.06824887        1        0
S       57.02177292     -55.46788832      11.09633900        2        0
Hf      55.97631598     -57.24472720      12.57981813        0        0
S       54.90583161     -55.48304714      14.06801885        1        0
S       53.89499465     -57.24502710      11.10176050        2        0
Hf      52.85189566     -59.02278576      12.58799382        0        0
S       51.78677761     -57.26008144      14.07633295        1        0
S       50.77177980     -59.03198113      11.11091481        2        0
Hf      49.73283600     -60.81328481      12.59834568        0        0
S       48.67253544     -59.04931987      14.08744742        1        0
S       47.65480923     -60.82931596      11.12009312        2        0
Hf      46.61937393     -62.61453898      12.60760341        0        0
S       45.56291821     -60.84830623      14.09771545        1        0
S       44.54296748     -62.63502663      11.12790666        2        0
Hf      43.51041482     -64.42421147      12.61468371        0        0
S       42.45726824     -62.65445436      14.10587787        1        0
S       41.43566525     -64.44818027      11.13370048        2        0
Hf      40.40654016     -66.24221920      12.61898741        0        0
S       39.35654179     -64.46833945      14.11096620        1        0
S       38.33418735     -66.26964268      11.13644762        2        0
Hf      37.30922413     -68.06930274      12.61983218        0        0
S       36.26238367     -66.29152950      14.11196154        1        0
S       35.23972698     -68.09971622      11.13541514        2        0
Hf      34.21862116     -69.90450749      12.61709517        0        0
S       33.17499893     -68.12332849      14.10869539        1        0
S       32.15178757     -69.93619303      11.13075954        2        0
Hf      65.26194046      -9.00237524      12.61742541        0        0
S       64.21857526      -7.21845763      14.10797713        1        0
S       63.19675011      -9.03013593      11.12980306        2        0
Hf      62.18000900     -10.83990795      12.60994169        0        0
S       61.14000480      -9.05315413      14.09942470        1        0
S       60.11753412     -10.86435470      11.11950743        2        0
Hf      59.09870596     -12.67557003      12.59716361        0        0
S       58.06071225     -10.88699144      14.08514918        1        0
S       57.03953847     -12.69176362      11.10193846        2        0
Hf      56.01341278     -14.50261818      12.57483497        0        0
S       54.97586147     -12.71356105      14.06088493        1        0
S       53.95792659     -14.50567298      11.07297123        2        0
Hf      52.91856431     -16.31383016      12.53890050        0        0
S       51.88084705     -14.52515296      14.02255499        1        0
S       50.86550285     -16.30150858      11.03110936        2        0
Hf      49.80910629     -18.10417481      12.49026932        0        0
S       48.77195339     -16.31517391      13.97097454        1        0
S       47.75560089     -18.07880856      10.98012874        2        0
Hf      46.68329966     -19.87409214      12.43566027        0        0
S       45.64875484     -18.08252481      13.91338527        1        0
S       44.62604373     -19.84189958      10.92832624        2        0
Hf      43.54402543     -21.62979452      12.38545739        0        0
S       42.51550000     -19.83300485      13.86121781        1        0
S       41.48034822     -21.59725585      10.88630505        2        0
Hf      40.39759609     -23.37955150      12.35067603        0        0
S       39.37719047     -21.57575490      13.82575730        1        0
S       38.32693903     -23.34927065      10.86155202        2        0
Hf      37.25056518     -25.12876579      12.33540649        0        0
S       36.23698706     -23.31743727      13.81038168        1        0
S       35.17371570     -25.10043977      10.85504732        2        0
Hf      34.10605796     -26.87886291      12.33768997        0        0
S       33.09793690     -25.06046174      13.81232778        1        0
S       32.02358242     -26.85239551      10.86551832        2        0
Hf      30.96434156     -28.62964984      12.35659285        0        0
S       29.96228450     -26.80550947      13.83079180        1        0
S       28.87775259     -28.60662249      10.89194489        2        0
Hf      27.82701661     -30.38304287      12.39081274        0        0
S       26.83130168     -28.55562288      13.86549025        1        0
S       25.73985759     -30.36645968      10.93031920        2        0
Hf      24.69845212     -32.14441170      12.43415141        0        0
S       23.70682474     -30.31709086      13.91091576        1        0
S       22.61437605     -32.13696033      10.97333334        2        0
Hf      21.58295136     -33.91910273      12.47874756        0        0
S       20.59158922     -32.09487298      13.95876836        1        0
S       19.50367723     -33.92123242      11.01493971        2        0
Hf      18.48202781     -35.70854323      12.52009361        0        0
S       17.48696555     -33.88929441      14.00369872        1        0
S       16.40766538     -35.71867669      11.05220811        2        0
Hf      15.39433073     -37.51061627      12.55613670        0        0
S       14.39224790     -35.69767349      14.04321699        1        0
S       13.32441430     -37.52646456      11.08374482        2        0
Hf      12.31703835     -39.32187999      12.58558277        0        0
S       11.30562068     -37.51639453      14.07576082        1        0
S       10.25089649     -39.34119381      11.10865296        2        0
Hf       9.24686723     -41.13877085      12.60776045        0        0
S        8.22486048     -39.34153001      14.10038561        1        0
S        7.18371659     -41.15908707      11.12650059        2        0
Hf       6.18030633     -42.95732225      12.62251050        0        0
S        5.14703009     -41.16875015      14.11673022        1        0
S        4.11934762     -42.97566678      11.13694297        2        0
Hf       3.11340024     -44.77286527      12.62935516        0        0
S        2.06832519     -42.99312113      14.12422773        1        0
S       69.37197265     -44.78604814      11.13925767        2        0
Hf      68.35968974     -46.58040219      12.62734893        0        0
S       67.30268059     -44.80917900      14.12180833        1        0
S       66.29968681     -46.58629883      11.13319684        2        0
Hf      65.27748477     -48.37615732      12.61674899        0        0
S       64.20955229     -46.61185049      14.10954395        1        0
S       63.21441083     -48.37501690      11.12094693        2        0
Hf      62.18070799     -50.15938720      12.60132325        0        0
S       61.10481079     -48.39895612      14.09135627        1        0
S       60.11175421     -50.15398903      11.10785488        2        0
Hf      59.06843765     -51.93290512      12.58799069        0        0
S       57.98944801     -50.17334324      14.07528307        1        0
S       56.99292292     -51.92768583      11.10025234        2        0
Hf      55.94505281     -53.70277572      12.58291547        0        0
S       54.86802348     -51.94228689      14.06870501        1        0
S       53.86544602     -53.70229547      11.10117420        2        0
Hf      52.81903437     -55.47721536      12.58693602        0        0
S       51.74683182     -53.71526391      14.07267374        1        0
S       50.73922147     -55.48389964      11.10817667        2        0
Hf      49.69814882     -57.26236349      12.59577583        0        0
S       48.63097258     -55.49876432      14.08233411        1        0
S       47.62020687     -57.27507805      11.11697221        2        0
Hf      46.58503263     -59.05832786      12.60524233        0        0
S       45.52193407     -57.29227338      14.09288425        1        0
S       44.50890160     -59.07439560      11.12532449        2        0
Hf      43.47857810     -60.86213834      12.61353624        0        0
S       42.41905583     -59.09223817      14.10228860        1        0
S       41.40399630     -60.87994544      11.13247576        2        0
Hf      40.37791711     -62.67233447      12.61983992        0        0
S       39.32207044     -60.89764002      14.10949881        1        0
S       38.30553510     -62.69204497      11.13727955        2        0
Hf      37.28365980     -64.48992016      12.62287616        0        0
S       36.23187811     -62.71048029      14.11299616        1        0
S       35.21428236     -64.51207152      11.13826644        2        0
Hf      65.23684003      -5.40997669      12.62101646        0        0
S       64.18932967      -3.62323022      14.10989942        1        0
S       63.17199231      -5.43014531      11.13317852        2        0
Hf      62.15995408      -7.24020421      12.61475795        0        0
S       61.11703466      -5.45028352      14.10311868        1        0
S       60.09770128      -7.25856955      11.12474734        2        0
Hf      59.08559382      -9.07137487      12.60422111        0        0
S       58.04626553      -7.27925743      14.09185347        1        0
S       57.02609417      -9.08335527      11.11084598        2        0
Hf      56.00990996     -10.89721040      12.58654975        0        0
S       54.97252867      -9.10446000      14.07338358        1        0
S       53.95358781     -10.89768138      11.08791135        2        0
Hf      52.92784554     -12.71062372      12.55728189        0        0
S       51.89097821     -10.91907167      14.04331702        1        0
S       50.87413287     -12.69621075      11.05282612        2        0
Hf      49.83345453     -14.50561635      12.51444548        0        0
S       48.79676785     -12.71609877      13.99939602        1        0
S       47.78025992     -14.47699837      11.00627478        2        0
Hf      46.72234753     -16.28041747      12.46140975        0        0
S       45.68686390     -14.49161849      13.94498881        1        0
S       44.66661062     -16.24251047      10.95378258        2        0
Hf      43.59432506     -18.03892843      12.40644936        0        0
S       42.56319387     -16.24777628      13.88919449        1        0
S       41.53270801     -17.99854271      10.90537418        2        0
Hf      40.45366659     -19.78866614      12.36185765        0        0
S       39.43065718     -17.99191880      13.84444066        1        0
S       38.38458950     -19.74993786      10.87129321        2        0
Hf      37.30770569     -21.53584962      12.33659124        0        0
S       36.29336308     -19.73174911      13.81911412        1        0
S       35.23194810     -21.49905030      10.85574300        2        0
Hf      34.16255397     -23.28320927      12.33018179        0        0
S       33.15509690     -21.47196901      13.81284074        1        0
S       32.08075454     -23.24812326      10.85783741        2        0
Hf      31.02015290     -25.03153879      12.34029988        0        0
S       30.01909974     -23.21468303      13.82345786        1        0
S       28.93279066     -25.00013031      10.87660790        2        0
Hf      27.88096551     -26.78266700      12.36704295        0        0
S       26.88680668     -24.96209057      13.85097648        1        0
S       25.79059388     -26.75898997      10.91006117        2        0
Hf      24.74748414     -28.54148847      12.40751850        0        0
S       23.75897175     -26.71933542      13.89243329        1        0
S       22.65834007     -28.52950379      10.95224802        2        0
Hf      21.62333715     -30.31389798      12.45380014        0        0
S       20.63706666     -28.49259485      13.93989993        1        0
S       19.53864979     -30.31525937      10.99574881        2        0
Hf      18.51080645     -32.10275736      12.49880429        0        0
S       17.52245188     -30.28441438      13.98585875        1        0
S       16.43174988     -32.11654485      11.03564784        2        0
Hf      15.40995549     -33.90688419      12.53899854        0        0
S       14.41533142     -32.09309421      14.02649283        1        0
S       13.33637267     -33.93047207      11.06983230        2        0
Hf      12.31919651     -35.72268345      12.57269201        0        0
S       11.31506100     -33.91478912      14.06043129        1        0
S       10.25036488     -35.75273409      11.09751735        2        0
Hf       9.23617010     -37.54588047      12.59899842        0        0
S        8.22069986     -35.74500141      14.08719309        1        0
S        7.17115738     -37.57878740      11.11839346        2        0
Hf       6.15821060     -39.37206668      12.61765851        0        0
S        5.13068489     -37.57901097      14.10663741        1        0
S        4.09606570     -39.40398506      11.13227482        2        0
Hf       3.08225136     -41.19646230      12.62855891        0        0
S        2.04242382     -39.41177454      14.11833862        1        0
S       69.34037447     -41.22346679      11.13862002        2        0
Hf      68.32281171     -43.01395764      12.63098459        0        0
S       67.27057007     -41.23783622      14.12115554        1        0
S       66.26352613     -43.03285073      11.13665154        2        0
Hf      65.23878627     -44.81997120      12.62433542        0        0
S       64.17470085     -43.05169245      14.11401913        1        0
S       63.17816949     -44.82963116      11.12705570        2        0
Hf      62.14369022     -46.61225134      12.61048036        0        0
S       61.06981986     -44.84945372      14.09844168        1        0
S       60.07872015     -46.61436731      11.11360832        2        0
Hf      59.03459706     -48.39204856      12.59502444        0        0
S       57.95495873     -46.63150151      14.08053537        1        0
S       56.96323968     -48.39053445      11.10250272        2        0
Hf      55.91294953     -50.16402133      12.58498033        0        0
S       54.83272842     -48.40325343      14.06866039        1        0
S       53.83604115     -50.16372360      11.09887566        2        0
Hf      52.78539147     -51.93570791      12.58427986        0        0
S       51.70867763     -50.17346142      14.06753190        1        0
S       50.70639654     -51.94022841      11.10303771        2        0
Hf      49.66082443     -53.71484991      12.59084373        0        0
S       48.58895465     -51.95074523      14.07486457        1        0
S       47.58295694     -53.72440455      11.11106781        2        0
Hf      46.54493092     -55.50430152      12.59995991        0        0
S       45.47717866     -53.73766209      14.08519088        1        0
S       44.46901629     -55.51636251      11.11960063        2        0
Hf      43.43822298     -57.30175858      12.60879224        0        0
S       42.37379473     -55.53109118      14.09523152        1        0
S       41.36392293     -57.31401388      11.12749481        2        0
Hf      40.33938434     -59.10454384      12.61640514        0        0
S       39.27829142     -57.32847549      14.10380770        1        0
S       38.26701140     -59.11686242      11.13386023        2        0
Hf      37.24796426     -60.91292390      12.62154585        0        0
S       36.19082401     -59.13129391      14.10947491        1        0
S       35.17842328     -60.92662517      11.13703963        2        0
Hf      62.12862596      -3.64110512      12.61655476        0        0
S       61.08081363      -1.84826311      14.10337791        1        0
S       60.06609678      -3.65301153      11.12708683        2        0
Hf      59.05986717      -5.46648897      12.60831705        0        0
S       58.01644945      -3.67146279      14.09489769        1        0
S       56.99961105      -5.47404111      11.11667526        2        0
Hf      55.99175369      -7.28967332      12.59503120        0        0
S       54.95152713      -5.49380353      14.08148092        1        0
S       53.93404721      -7.28788308      11.09974816        2        0
Hf      52.92012072      -9.10396337      12.57307503        0        0
S       51.88164266      -7.30926182      14.05973521        1        0
S       50.86496080      -9.08864778      11.07283397        2        0
Hf      49.83954012     -10.90299502      12.53880474        0        0
S       48.80191650      -9.11139076      14.02597997        1        0
S       47.78567809     -10.87315182      11.03420455        2        0
Hf      46.74436143     -12.68328661      12.49223350        0        0
S       45.70781976     -10.89488254      13.97991799        1        0
S       44.68926174     -12.64206250      10.98632943        2        0
Hf      43.63151312     -14.44635578      12.43859003        0        0
S       42.59804718     -12.65865291      13.92703676        1        0
S       41.57169427     -14.39973787      10.93680483        2        0
Hf      40.50209966     -16.19800908      12.38850741        0        0
S       39.47564339     -14.40714911      13.87806048        1        0
S       38.43481409     -16.15121906      10.89631767        2        0
Hf      37.36139193     -17.94447029      12.35372633        0        0
S       36.34463423     -16.14742573      13.84393918        1        0
S       35.28668016     -17.89933300      10.87234100        2        0
Hf      34.21693548     -19.68951023      12.33851677        0        0
S       33.20928354     -17.88552391      13.82911698        1        0
S       32.13586961     -19.64627237      10.86648747        2        0
Hf      31.07390778     -21.43510635      12.34107455        0        0
S       30.07390187     -19.62566456      13.83270119        1        0
S       28.98688083     -21.39565099      10.87796043        2        0
Hf      27.93406582     -23.18371548      12.36051027        0        0
S       26.94084429     -21.37075670      13.85357772        1        0
S       25.84260931     -23.15247664      10.90513626        2        0
Hf      24.79895256     -24.94018286      12.39530951        0        0
S       23.81111246     -23.12499320      13.88929154        1        0
S       22.70674980     -24.92207764      10.94344624        2        0
Hf      21.67098205     -26.71062906      12.43927205        0        0
S       20.68569547     -24.89453194      13.93315734        1        0
S       19.58200446     -26.70839824      10.98559723        2        0
Hf      18.55181608     -28.49881625      12.48421999        0        0
S       17.56546241     -26.68366974      13.97686811        1        0
S       16.46840994     -28.51241236      11.02499734        2        0
Hf      15.44158766     -30.30452736      12.52465630        0        0
S       14.45048463     -28.49212357      14.01497498        1        0
S       13.36422670     -30.33158106      11.05843191        2        0
Hf      12.33938926     -32.12437167      12.55850075        0        0
S       11.34039689     -30.31597697      14.04607322        1        0
S       10.26743339     -32.16112593      11.08534544        2        0
Hf       9.24385274     -33.95356692      12.58540961        0        0
S        8.23484095     -32.15018313      14.07080679        1        0
S        7.17628591     -33.99569049      11.10616517        2        0
Hf       6.15342048     -35.78707274      12.60565850        0        0
S        5.13324903     -33.98964708      14.09003455        1        0
S        4.08926113     -35.83005306      11.12126890        2        0
Hf       3.06619839     -37.61984600      12.61937614        0        0
S        2.03418446     -35.82931154      14.10377303        1        0
S        1.00465151     -37.65914099      11.13032857        2        0
Hf      68.29783643     -39.44667946      12.62592748        0        0
S       67.25350738     -37.66383116      14.11083101        1        0
S       66.23814672     -39.47818476      11.13225146        2        0
Hf      65.20830223     -41.26260375      12.62405420        0        0
S       64.15157618     -39.48765588      14.10922495        1        0
S       63.14893209     -41.28379055      11.12639319        2        0
Hf      62.11148570     -43.06417453      12.61381446        0        0
S       61.04353329     -41.29585817      14.09833287        1        0
S       60.04974248     -43.07527408      11.11461796        2        0
Hf      59.00354054     -44.85112222      12.59874332        0        0
S       57.92735084     -43.08664771      14.08157001        1        0
S       56.93654008     -44.85513037      11.10195457        2        0
Hf      55.88340903     -46.62671076      12.58550815        0        0
S       54.80369944     -44.86320802      14.06650489        1        0
S       53.81030581     -46.62831957      11.09443897        2        0
Hf      52.75490790     -48.39731274      12.58010581        0        0
S       51.67652122     -46.63288067      14.06027637        1        0
S       50.67789041     -48.40094471      11.09513495        2        0
Hf      49.62610051     -50.17094851      12.58361879        0        0
S       48.55171840     -48.40469278      14.06426352        1        0
S       47.54879351     -50.17820688      11.10191116        2        0
Hf      46.50489109     -51.95300974      12.59197244        0        0
S       45.43455675     -50.18433063      14.07395761        1        0
S       44.42930482     -51.96200336      11.11062469        2        0
Hf      43.39453452     -53.74314319      12.60110848        0        0
S       42.32729887     -51.97058295      14.08466852        1        0
S       41.32064581     -53.75098226      11.11917461        2        0
Hf      40.29447713     -55.53831259      12.60951725        0        0
S       39.23003040     -53.76014613      14.09445021        1        0
S       38.22224681     -55.54422997      11.12677065        2        0
Hf      55.95882328      -3.68189540      12.59969664        0        0
S       54.91431159      -1.88345979      14.08484436        1        0
S       53.89982879      -3.67786160      11.10723760        2        0
Hf      52.89515454      -5.49564380      12.58425596        0        0
S       51.85340004      -3.69789246      14.06984387        1        0
S       50.83842554      -5.48009401      11.08813553        2        0
Hf      49.82603915      -7.29741879      12.55929964        0        0
S       48.78616031      -5.50260625      14.04613010        1        0
S       47.77104534      -7.26800238      11.05899637        2        0
Hf      46.74603647      -9.08275157      12.52241625        0        0
S       45.70785496      -7.29236950      14.01136930        1        0
S       44.69089934      -9.04076282      11.01967945        2        0
Hf      43.65027238     -10.85113447      12.47556156        0        0
S       42.61477297      -9.06413692      13.96721435        1        0
S       41.59180368     -10.80110519      10.97465600        2        0
Hf      40.53678714     -12.60629411      12.42632438        0        0
S       39.50674465     -10.81922047      13.92090889        1        0
S       38.47152662     -12.55349344      10.93287141        2        0
Hf      37.40749418     -14.35362291      12.38603348        0        0
S       36.38648947     -12.56280553      13.88289636        1        0
S       35.33414295     -14.30139445      10.90330537        2        0
Hf      34.26813427     -16.09744242      12.36268357        0        0
S       33.25770295     -14.30106034      13.86095037        1        0
S       32.18766927     -16.04736933      10.89043252        2        0
Hf      31.12581702     -17.84089772      12.35791633        0        0
S       30.12510624     -16.03947514      13.85751424        1        0
S       29.03928951     -17.79512209      10.89501209        2        0
Hf      27.98526600     -19.58726428      12.37085777        0        0
S       26.99216540     -17.78248435      13.87193764        1        0
S       25.89402235     -19.55005187      10.91563961        2        0
Hf      24.84897621     -21.34148092      12.39941335        0        0
S       23.86050285     -19.53433706      13.90125867        1        0
S       22.75587034     -21.31794574      10.94830492        2        0
Hf      21.71907266     -23.10973500      12.43840336        0        0
S       20.73197139     -21.30075022      13.93959620        1        0
S       19.62776843     -23.10324791      10.98655220        2        0
Hf      18.59682282     -24.89654684      12.48019849        0        0
S       17.60816002     -23.08704025      13.97910449        1        0
S       16.51021772     -24.90769994      11.02329503        2        0
Hf      15.48176106     -26.70269057      12.51803021        0        0
S       14.48919800     -24.89442080      14.01312203        1        0
S       13.40103010     -26.72956715      11.05391912        2        0
Hf      12.37242455     -28.52526521      12.54881950        0        0
S       11.37412533     -26.71934711      14.03926989        1        0
S       10.29728429     -28.56425587      11.07750649        2        0
Hf       9.26753200     -30.35930576      12.57275258        0        0
S        8.26206622     -28.55626106      14.05881846        1        0
S        7.19707209     -30.40604417      11.09524332        2        0
Hf       6.16632956     -32.19933979      12.59111068        0        0
S        5.15248630     -30.39978678      14.07396364        1        0
S        4.09957188     -32.24919792      11.10847495        2        0
Hf       3.06803085     -34.03997838      12.60476885        0        0
S        2.04456636     -32.24488029      14.08582362        1        0
S        1.00428470     -34.08824340      11.11752170        2        0
Hf      68.28952590     -35.87584270      12.61341045        0        0
S       67.25514464     -34.08638319      14.09378775        1        0
S       66.22832933     -35.91789905      11.12140648        2        0
Hf      65.19193701     -37.70162945      12.61545294        0        0
S       64.14555520     -35.91881077      14.09568005        1        0
S       63.13249213     -37.73379887      11.11861936        2        0
Hf      62.09019646     -39.51295395      12.60947637        0        0
S       61.03175872     -37.73673353      14.08932982        1        0
S       60.03044011     -39.53381715      11.10925692        2        0
Hf      58.98051206     -41.30802193      12.59677062        0        0
S       57.91183265     -39.53661875      14.07546234        1        0
S       56.91741499     -41.31916903      11.09660340        2        0
Hf      55.86047717     -43.08870404      12.58245800        0        0
S       54.78535656     -41.31942467      14.05949222        1        0
S       53.79184254     -43.09414083      11.08632571        2        0
Hf      52.73125293     -44.86018477      12.57319689        0        0
S       51.65460792     -43.09081878      14.04905409        1        0
S       50.65756754     -44.86470338      11.08322483        2        0
Hf      49.59859927     -46.62993492      12.57292894        0        0
S       48.52430508     -44.85908391      14.04876446        1        0
S       47.52287662     -46.63634842      11.08785260        2        0
Hf      46.47074874     -48.40477109      12.57992460        0        0
S       45.40007664     -46.63166027      14.05691132        1        0
S       44.39592240     -48.41217560      11.09662359        2        0
Hf      43.35367452     -50.18682384      12.58951187        0        0
S       42.28601480     -48.41022522      14.06840906        1        0
S       41.28046102     -50.19204476      11.10628620        2        0
Hf      49.79516522      -3.68909406      12.57310713        0        0
S       48.75362555      -1.89063779      14.05845487        1        0
S       47.73887235      -3.66092826      11.07728655        2        0
Hf      46.72783932      -5.47844149      12.54688381        0        0
S       45.68859362      -3.68446012      14.03511761        1        0
S       44.67208846      -5.43790570      11.04834158        2        0
Hf      43.64844271      -7.25230183      12.51057329        0        0
S       42.61153802      -5.46349777      14.00298228        1        0
S       41.59069507      -7.20223087      11.01204919        2        0
Hf      40.55282410      -9.01232633      12.46811164        0        0
S       39.51952277      -7.22656127      13.96502027        1        0
S       38.48958702      -8.95720158      10.97427907        2        0
Hf      37.43971594     -10.76244857      12.42835834        0        0
S       36.41299202      -8.97604846      13.92898873        1        0
S       35.36845029     -10.70633864      10.94349924        2        0
Hf      34.31154155     -12.50686001      12.40048636        0        0
S       33.29454716     -10.71726062      13.90376417        1        0
S       32.23227984     -12.45266407      10.92617240        2        0
Hf      31.17419796     -14.24944920      12.38931609        0        0
S       30.16808227     -12.45620215      13.89466654        1        0
S       29.08841663     -14.20005076      10.92489686        2        0
Hf      28.03442957     -15.99443635      12.39587564        0        0
S       27.03760720     -14.19839908      13.90273292        1        0
S       25.94400329     -15.95400004      10.93908249        2        0
Hf      24.89699765     -17.74701291      12.41801839        0        0
S       23.90536343     -15.94892963      13.92523570        1        0
S       22.80442356     -17.72041546      10.96518335        2        0
Hf      21.76482241     -19.51309468      12.45066679        0        0
S       20.77361666     -17.71300131      13.95680088        1        0
S       19.67307786     -19.50382733      10.99771792        2        0
Hf      18.63987596     -21.29761775      12.48731182        0        0
S       17.64571898     -19.49604257      13.99086595        1        0
S       16.55172212     -21.30646389      11.03030155        2        0
Hf      15.52223833     -23.10248084      12.52108819        0        0
S       14.52373874     -21.30091266      14.02066644        1        0
S       13.43919389     -23.12769356      11.05755153        2        0
Hf      12.40988740     -24.92567424      12.54766404        0        0
S       11.40688961     -23.12517978      14.04235458        1        0
S       10.33202891     -24.96391004      11.07733953        2        0
Hf       9.30045517     -26.76243797      12.56679459        0        0
S        8.29315229     -24.96321151      14.05648787        1        0
S        7.22709087     -26.80974568      11.09072962        2        0
Hf       6.19270882     -28.60716934      12.58055693        0        0
S        5.18078704     -26.80924393      14.06580500        1        0
S        4.12305071     -28.65940167      11.09984910        2        0
Hf       3.08625170     -30.45431649      12.59090803        0        0
S        2.06852879     -28.65817844      14.07261888        1        0
S        1.01978547     -30.50711528      11.10597518        2        0
Hf      68.29892234     -32.29839237      12.59823726        0        0
S       67.27348033     -30.50508015      14.07738862        1        0
S       66.23545488     -32.34722677      11.10873180        2        0
Hf      65.19305183     -34.13385270      12.60130078        0        0
S       64.15772522     -32.34467189      14.07862344        1        0
S       63.13231654     -34.17445668      11.10652542        2        0
Hf      62.08468598     -35.95547279      12.59796651        0        0
S       61.03799521     -34.17129522      14.07379820        1        0
S       60.02547644     -35.98507271      11.09825783        2        0
Hf      58.97084435     -37.75989457      12.58763958        0        0
S       57.91303786     -35.98015225      14.06180845        1        0
S       56.91049532     -37.77842532      11.08554905        2        0
Hf      55.84884408     -39.54728054      12.57343774        0        0
S       54.78240609     -37.76995053      14.04562023        1        0
S       53.78447884     -39.55758960      11.07299739        2        0
Hf      52.71826040     -41.32161662      12.56138131        0        0
S       51.64741721     -39.54462384      14.03182271        1        0
S       50.64881609     -41.32831902      11.06592482        2        0
Hf      49.58240977     -43.08967690      12.55695044        0        0
S       48.51157253     -41.31149000      14.02657396        1        0
S       47.50948518     -43.09652714      11.06712348        2        0
Hf      46.44802857     -44.85869296      12.56144978        0        0
S       45.37976642     -43.07828222      14.03152392        1        0
S       44.37460060     -44.86593154      11.07499953        2        0
Hf      43.62800266      -3.64906152      12.53904738        0        0
S       42.59093364      -1.85739928      14.03135251        1        0
S       41.57014051      -3.60216079      11.04417450        2        0
Hf      40.54900312      -5.41530738      12.50711280        0        0
S       39.51339601      -3.62917032      14.00466464        1        0
S       38.48731935      -5.36202185      11.01410159        2        0
Hf      37.45333868      -7.17050753      12.47292496        0        0
S       36.42069091      -5.38691983      13.97484800        1        0
S       35.38463800      -7.11473038      10.98597750        2        0
Hf      34.34031804      -8.91803036      12.44490879        0        0
S       33.31397449      -7.13387935      13.94993283        1        0
S       32.26324780      -8.86341925      10.96712154        2        0
Hf      31.21305089     -10.66190695      12.42989435        0        0
S       30.19621498      -8.87598396      13.93739865        1        0
S       29.12869766     -10.61201193      10.96189364        2        0
Hf      28.07773621     -12.40692068      12.43087617        0        0
S       27.07106450     -10.61947324      13.94031758        1        0
S       25.98850110     -12.36598383      10.97073858        2        0
Hf      24.94084952     -14.15878477      12.44666330        0        0
S       23.94125933     -12.37036575      13.95670181        1        0
S       22.84950365     -14.13151815      10.99048479        2        0
Hf      21.80677276     -15.92335067      12.47245218        0        0
S       20.80876454     -14.13366974      13.98131664        1        0
S       19.71584247     -15.91315845      11.01635483        2        0
Hf      18.67836661     -17.70530478      12.50267983        0        0
S       17.67702698     -15.91377646      14.00877593        1        0
S       16.59011500     -17.71297455      11.04346062        2        0
Hf      15.55744689     -19.50723511      12.53166603        0        0
S       14.55066371     -17.71437597      14.03384989        1        0
S       13.47342096     -19.53099991      11.06699471        2        0
Hf      12.44326885     -21.32842748      12.55449290        0        0
S       11.43163473     -19.53532133      14.05224087        1        0
S       10.36375720     -21.36500226      11.08382295        2        0
Hf       9.33295014     -23.16499123      12.56950888        0        0
S        8.31831545     -21.37203580      14.06292818        1        0
S        7.25737574     -23.21073368      11.09386300        2        0
Hf       6.22378301     -25.01159535      12.57847674        0        0
S        5.20755121     -23.21860511      14.06788553        1        0
S        4.15148770     -25.06296429      11.09900970        2        0
Hf       3.11431582     -26.86275940      12.58394657        0        0
S        2.09640441     -25.06965611      14.06958199        1        0
S        1.04500056     -26.91611641      11.10107643        2        0
Hf      68.32223770     -28.71305289      12.58728931        0        0
S       67.30096981     -26.92027374      14.06930264        1        0
S       66.25601736     -28.76441667      11.10042894        2        0
Hf      65.21051895     -30.55687403      12.58794727        0        0
S       64.18319970     -28.76539858      14.06647243        1        0
S       63.14764917     -30.60205354      11.09593159        2        0
Hf      62.09632527     -32.38853347      12.58394713        0        0
S       61.06031249     -30.59940073      14.05908603        1        0
S       60.03636967     -32.42393745      11.08608707        2        0
Hf      58.97769335     -34.20320782      12.57368003        0        0
S       57.93171057     -32.41664862      14.04550815        1        0
S       56.91869574     -34.22732514      11.07137370        2        0
Hf      55.85243728     -35.99897488      12.55857908        0        0
S       54.79736373     -34.21379816      14.02711491        1        0
S       53.79136200     -36.01327618      11.05542969        2        0
Hf      52.71960200     -37.77815185      12.54358061        0        0
S       51.65829340     -35.99261244      14.00911465        1        0
S       50.65433731     -37.78670923      11.04342053        2        0
Hf      49.58092140     -39.54672398      12.53445873        0        0
S       48.51739896     -37.75951768      13.99782876        1        0
S       47.51156019     -39.55394942      11.03944977        2        0
Hf      37.44761911      -3.57794691      12.51412899        0        0
S       36.41026889      -1.79617570      14.01637395        1        0
S       35.38147322      -3.52662429      11.02583959        2        0
Hf      34.35008495      -5.33142919      12.48907673        0        0
S       33.31429310      -3.55177655      13.99405923        1        0
S       32.27608446      -5.28016925      11.00742277        2        0
Hf      31.23550928      -7.07928307      12.47249101        0        0
S       30.20526907      -5.29966082      13.97935699        1        0
S       29.15358204      -7.03204874      10.99965898        2        0
Hf      28.10825288      -8.82635390      12.46934764        0        0
S       27.08659578      -7.04645249      13.97795693        1        0
S       26.02070855      -8.78745773      11.00457769        2        0
Hf      24.97489665     -10.57869454      12.47989713        0        0
S       23.96145826      -8.79895951      13.98952212        1        0
S       22.88509996     -10.55271743      11.01946030        2        0
Hf      21.84113182     -12.34261929      12.49963776        0        0
S       20.83197429     -10.56300353      14.00876757        1        0
S       19.75177438     -12.33279363      11.03939048        2        0
Hf      18.71043247     -14.12253946      12.52317177        0        0
S       17.70019284     -12.34180025      14.03000091        1        0
S       16.62320382     -14.12963808      11.06039110        2        0
Hf      15.58550686     -15.92079924      12.54641516        0        0
S       14.57036934     -14.13784243      14.04954898        1        0
S       13.50165253     -15.94324609      11.07932823        2        0
Hf      12.46803559     -17.73772443      12.56549759        0        0
S       11.44743113     -15.95287986      14.06453638        1        0
S       10.38804239     -17.77244005      11.09342378        2        0
Hf       9.35695269     -19.57096494      12.57788349        0        0
S        8.33287677     -17.78501972      14.07332730        1        0
S        7.28035902     -19.61446455      11.10157504        2        0
Hf       6.24916710     -21.41606571      12.58398584        0        0
S        5.22421489     -19.62930264      14.07643808        1        0
S        4.17528299     -21.46516417      11.10463117        2        0
Hf       3.14164320     -23.26794884      12.58584387        0        0
S        2.11743092     -21.48020353      14.07553973        1        0
S        1.07014584     -23.31955694      11.10400326        2        0
Hf      68.35054049     -25.12143667      12.58508965        0        0
S       67.32684521     -23.33265210      14.07177026        1        0
S       66.28172903     -25.17218319      11.10022291        2        0
Hf      65.23807556     -26.97105879      12.58180699        0        0
S       64.21277350     -25.18159817      14.06485264        1        0
S       63.17267628     -27.01714263      11.09242266        2        0
Hf      62.12161263     -28.81094067      12.57449582        0        0
S       61.09162847     -27.02145634      14.05312571        1        0
S       60.06002013     -28.84857990      11.07907448        2        0
Hf      59.00010723     -30.63534564      12.56133104        0        0
S       57.96307737     -28.84608466      14.03497459        1        0
S       56.94123197     -30.66201147      11.06006093        2        0
Hf      55.87221178     -32.44035674      12.54270622        0        0
S       54.82774178     -30.65049497      14.01119846        1        0
S       53.81326780     -32.45618974      11.03843651        2        0
Hf      52.73713997     -34.22603629      12.52277309        0        0
S       51.68671364     -32.43405858      13.98633877        1        0
S       50.67534926     -34.23427111      11.01940511        2        0
Hf      31.23879975      -3.50204650      12.51252029        0        0
S       30.19584485      -1.72783326      14.01731380        1        0
S       29.16040664      -3.46030524      11.03420659        2        0
Hf      28.12087364      -5.25338903      12.50593800        0        0
S       27.08269098      -3.47970726      14.01109358        1        0
S       26.03594673      -5.21877199      11.03543126        2        0
Hf      24.99311670      -7.00760740      12.51200368        0        0
S       23.96203292      -5.23449471      14.01764521        1        0
S       22.90523529      -6.98457097      11.04655596        2        0
Hf      21.86208534      -8.77160169      12.52719095        0        0
S       20.83702617      -6.99935720      14.03285394        1        0
S       19.77463808      -8.76325092      11.06241876        2        0
Hf      18.73201802     -10.55021620      12.54554023        0        0
S       17.70938568      -8.77807588      14.05011160        1        0
S       16.64658638     -10.55704461      11.07855995        2        0
Hf      15.60519901     -12.34513074      12.56313053        0        0
S       14.58092756     -10.57124348      14.06532499        1        0
S       13.52240128     -12.36577400      11.09282980        2        0
Hf      12.48405997     -14.15669954      12.57784767        0        0
S       11.45581526     -12.37992815      14.07691825        1        0
S       10.40437345     -14.18875620      11.10380111        2        0
Hf       9.37029852     -15.98413403      12.58791294        0        0
S        8.33845390     -14.20486039      14.08409052        1        0
S        7.29363965     -16.02465103      11.11046186        2        0
Hf       6.26289700     -17.82459257      12.59276970        0        0
S        5.22953757     -16.04357238      14.08666614        1        0
S        4.18866592     -17.87066279      11.11276462        2        0
Hf       3.15875016     -19.67382648      12.59326634        0        0
S        2.12614660     -17.89136216      14.08534729        1        0
S        1.08643896     -19.72265592      11.11138916        2        0
Hf      68.37265606     -21.52707505      12.59056861        0        0
S       67.34200712     -19.74312732      14.08075956        1        0
S       66.30238148     -21.57565114      11.10655582        2        0
Hf      65.26516036     -23.37920112      12.58474987        0        0
S       64.23594377     -21.59380615      14.07238774        1        0
S       63.19777230     -23.42399612      11.09715048        2        0
Hf      62.15227243     -25.22441888      12.57434644        0        0
S       61.12226154     -23.43778606      14.05818079        1        0
S       60.08883601     -25.26160174      11.08106752        2        0
Hf      59.03250007     -27.05646052      12.55722217        0        0
S       57.99906123     -25.26857683      14.03582143        1        0
S       56.97299298     -27.08289816      11.05732929        2        0
Hf      55.90499733     -28.86990690      12.53311918        0        0
S       54.86694847     -27.07977573      14.00544019        1        0
S       53.84726553     -28.88466869      11.02854734        2        0
Hf      24.99351854      -3.44503393      12.53879762        0        0
S       23.94527129      -1.67674330      14.03878284        1        0
S       22.90814701      -3.42578752      11.06766257        2        0
Hf      21.86587605      -5.20952401      12.54968731        0        0
S       20.82356036      -3.44176883      14.04936449        1        0
S       19.78034688      -5.20317271      11.08042221        2        0
Hf      18.73825343      -6.98706376      12.56462995        0        0
S       17.70066426      -5.21986280      14.06407510        1        0
S       16.65473821      -6.99396414      11.09379457        2        0
Hf      15.61290532      -8.77936104      12.57867885        0        0
S       14.57737498      -7.01145128      14.07744663        1        0
S       13.53166055      -8.79792981      11.10513664        2        0
Hf      12.49095383     -10.58585412      12.58990442        0        0
S       11.45491886      -8.81543906      14.08741905        1        0
S       10.41202729     -10.61423503      11.11370891        2        0
Hf       9.37467725     -12.40629597      12.59772923        0        0
S        8.33690741     -10.63263278      14.09370524        1        0
S        7.29829591     -12.44252601      11.11907542        2        0
Hf       6.26573123     -14.23974533      12.60176147        0        0
S        5.22666865     -12.46330493      14.09625904        1        0
S        4.19176246     -14.28160860      11.12100328        2        0
Hf       3.16310514     -16.08347440      12.60210760        0        0
S        2.12422035     -14.30490219      14.09531420        1        0
S        1.09108042     -16.12852177      11.11970456        2        0
Hf      68.38193696     -17.93339443      12.59928063        0        0
S       67.34463919     -16.15301373      14.09125039        1        0
S       66.31166516     -17.97885386      11.11520701        2        0
Hf      65.28189237     -19.78474322      12.59317324        0        0
S       64.24667156     -18.00267918      14.08354969        1        0
S       63.21391707     -19.82721200      11.10632430        2        0
Hf      62.17750317     -21.63205250      12.58211442        0        0
S       61.14342629     -19.84846679      14.06986782        1        0
S       60.11303781     -21.66752161      11.09025338        2        0
Hf      59.06547392     -23.46893757      12.56313962        0        0
S       58.03073085     -21.68380576      14.04666973        1        0
S       57.00535898     -23.49359667      11.06436250        2        0
Hf      18.72816820      -3.43097065      12.57665791        0        0
S       17.67636973      -1.66629973      14.07058909        1        0
S       16.64604731      -3.43771467      11.10292082        2        0
Hf      15.60541883      -5.22073925      12.58905594        0        0
S       14.55785383      -3.45569292      14.08323672        1        0
S       13.52552820      -5.23727101      11.11322545        2        0
Hf      12.48589243      -7.02308391      12.59903256        0        0
S       11.44082626      -5.25630295      14.09348782        1        0
S       10.40783268      -7.04739123      11.12113789        2        0
Hf       9.37010408      -8.83687877      12.60598777        0        0
S        8.32618114      -7.06698274      14.10051717        1        0
S        7.29402659      -8.86768435      11.12635367        2        0
Hf       6.26020904     -10.66217171      12.60983507        0        0
S        5.21680475      -8.88883679      14.10407794        1        0
S        4.18648567     -10.69828983      11.12850345        2        0
Hf       3.15753887     -12.49818993      12.61044672        0        0
S        2.11488173     -10.72189025      14.10405235        1        0
S        1.08611620     -12.53797869      11.12750131        2        0
Hf      68.37910987     -14.34221102      12.60807292        0        0
S       67.33792683     -12.56344931      14.10074477        1        0
S       66.30970162     -14.38329655      11.12352847        2        0
Hf      65.28525577     -16.19002192      12.60268413        0        0
S       64.24596843     -14.40917671      14.09410617        1        0
S       63.21798500     -16.22915862      11.11580587        2        0
Hf      62.19018779     -18.03645085      12.59279225        0        0
S       61.15235596     -16.25390950      14.08233481        1        0
S       60.12596179     -18.06948365      11.10162769        2        0
Hf      12.46700861      -3.46530034      12.60309466        0        0
S       11.41283350      -1.70002214      14.09416127        1        0
S       10.38964029      -3.48568237      11.12430839        2        0
Hf       9.35428490      -5.27349658      12.61076497        0        0
S        8.30317787      -3.50532342      14.10280076        1        0
S        7.27849080      -5.29854480      11.13056874        2        0
Hf       6.24608058      -7.09085730      12.61568295        0        0
S        5.19752808      -5.31893060      14.10844743        1        0
S        4.17242700      -7.12013886      11.13403910        2        0
Hf       3.14419076      -8.91794053      12.61739873        0        0
S        2.09802657      -7.14228078      14.11033743        1        0
S        1.07318121      -8.95086097      11.13405165        2        0
Hf      68.36750774     -10.75395075      12.61575348        0        0
S       67.32381174      -8.97503876      14.10822389        1        0
S       66.29903257     -10.78895613      11.13064816        2        0
Hf      65.27783958     -12.59584315      12.61102590        0        0
S       64.23668241     -10.81414404      14.10247157        1        0
S       63.21174358     -12.63011977      11.12379465        2        0
Hf       6.22136733      -3.52379275      12.61767840        0        0
S        5.16667260      -1.75186152      14.10811775        1        0
S        4.14773228      -3.54593217      11.13593789        2        0
Hf       3.12215713      -5.34183659      12.62140645        0        0
S        2.07110816      -3.56542066      14.11251193        1        0
S        1.05123959      -5.36683934      11.13787949        2        0
Hf      68.34799771      -7.16843888      12.62132096        0        0
S       67.30076594      -5.38799113      14.11245907        1        0
S       66.28008787      -7.19584239      11.13574938        2        0
Hf      68.31903957      -3.58536712      12.62329772        0        0
S       67.26677143      -1.80256638      14.11236485        1        0
S       66.25121686      -3.60435685      11.13757069        2        0
Ga       4.89901099    -116.39130938      18.18364925        3        1
Ga       4.87257522    -116.38679027      20.66598789        4        1
S        3.94483626    -118.22354266      17.07390583        5        1
S        3.91956352    -118.22282534      21.77020644        6        1
Ga      70.19584835    -118.32729072      18.18152243        3        1
Ga      70.17531262    -118.33040374      20.66390569        4        1
S       66.10877011      -0.10266103      17.07258333        5        1
S       66.09359053      -0.11313615      21.76905775        6        1
Ga      64.04201187      -0.20328163      18.18103795        3        1
Ga      64.02952565      -0.21583219      20.66336847        4        1
S       63.07665966      -2.02381818      17.07395684        5        1
S       63.07355704      -2.04637481      21.76973327        6        1
Ga       7.77575112    -110.85936274      18.19467692        3        1
Ga       7.73248124    -110.85453151      20.67689847        4        1
S        6.82926109    -112.69798757      17.08440756        5        1
S        6.78044913    -112.69510542      21.77841685        6        1
Ga       4.75984084    -112.81210352      18.18962159        3        1
Ga       4.71908781    -112.81040422      20.67195766        4        1
S        3.80648787    -114.64389203      17.07898175        5        1
S        3.76400196    -114.64738049      21.77463585        6        1
Ga      70.05554964    -114.75668234      18.18600426        3        1
Ga      70.01993401    -114.76019200      20.66836185        4        1
S       69.09523183    -116.58135588      17.07613682        5        1
S       69.06207330    -116.59363853      21.77201154        6        1
Ga      67.02617257    -116.69044124      18.18383570        3        1
Ga      66.99836391    -116.70164145      20.66610250        4        1
S       66.05964509    -118.50934853      17.07608653        5        1
S       66.03849257    -118.53201044      21.77099146        6        1
Ga      63.99071290    -118.61473879      18.18402374        3        1
Ga      63.97291919    -118.63492007      20.66612611        4        1
S       59.89263103      -0.37966232      17.07889131        5        1
S       59.88526105      -0.41279358      21.77240196        6        1
Ga      57.82400064      -0.48335115      18.18696429        3        1
Ga      57.81771196      -0.51225329      20.66892995        4        1
S       56.85012158      -2.29732154      17.08445204        5        1
S       56.85781899      -2.33956222      21.77675055        6        1
Ga      10.63171213    -105.30416708      18.21770664        3        1
Ga      10.58090152    -105.30617129      20.69962562        4        1
S        9.69775967    -107.14826939      17.10595372        5        1
S        9.63572400    -107.15441418      21.79663356        6        1
Ga       7.62913303    -107.27046967      18.20752239        3        1
Ga       7.57499523    -107.27172830      20.68981919        4        1
S        6.68754971    -109.10928328      17.09523055        5        1
S        6.62495661    -109.11563553      21.78863443        6        1
Ga       4.61751040    -109.23201514      18.19993682        3        1
Ga       4.56357713    -109.23367687      20.68232330        4        1
S        3.66769981    -111.06391403      17.08764850        5        1
S        3.60905999    -111.07311296      21.78274397        6        1
Ga      69.91544839    -111.18521395      18.19413649        3        1
Ga      69.86515502    -111.18955085      20.67647718        4        1
S       68.95722500    -113.00960681      17.08291129        5        1
S       68.90655121    -113.02463567      21.77817890        6        1
Ga      66.88644328    -113.12625718      18.18986918        3        1
Ga      66.84319899    -113.13657327      20.67205665        4        1
S       65.92055471    -114.94446020      17.08118739        5        1
S       65.88141313    -114.96786378      21.77518024        6        1
Ga      63.84969795    -115.05609652      18.18817027        3        1
Ga      63.81626261    -115.07442138      20.67010239        4        1
S       62.87786928    -116.87040826      17.08259002        5        1
S       62.85255938    -116.90292775      21.77472917        6        1
Ga      60.80722387    -116.97920752      18.18950004        3        1
Ga      60.78537990    -117.00545881      20.67116020        4        1
S       59.83137795    -118.79192528      17.08679693        5        1
S       59.82119606    -118.83238435      21.77720669        6        1
Ga      57.76131660    -118.90076487      18.19367088        3        1
Ga      57.75214497    -118.93337760      20.67512822        4        1
S       53.65620363      -0.66378954      17.09365456        5        1
S       53.66227948      -0.70954992      21.78281342        6        1
Ga      51.58742603      -0.77521614      18.20095810        3        1
Ga      51.59159405      -0.81188839      20.68232395        4        1
S       50.60897635      -2.59212665      17.10410248        5        1
S       50.63227326      -2.63913820      21.79258214        6        1
Ga      13.44634629     -99.72743491      18.25128007        3        1
Ga      13.40278724     -99.74272985      20.73253917        4        1
S       12.52418464    -101.57462617      17.13943182        5        1
S       12.47060850    -101.60001293      21.82685886        6        1
Ga      10.46208003    -101.70649032      18.24110608        3        1
Ga      10.40841413    -101.71700597      20.72292477        4        1
S        9.53531228    -103.55035509      17.12674200        5        1
S        9.46919288    -103.57061762      21.81639140        6        1
Ga       7.46812460    -103.68098595      18.22831431        3        1
Ga       7.40762313    -103.68835565      20.71057813        4        1
S        6.53409020    -105.52005073      17.11309471        5        1
S        6.46228133    -105.53732866      21.80546691        6        1
Ga       4.46415342    -105.65112267      18.21699445        3        1
Ga       4.40055399    -105.65624324      20.69941485        4        1
S        3.52121432    -107.48370190      17.10208443        5        1
S        3.44949241    -107.50003568      21.79632371        6        1
Ga      69.76821080    -107.61301398      18.20765839        3        1
Ga      69.70557887    -107.61816665      20.69002827        4        1
S       68.81539518    -109.43801823      17.09428934        5        1
S       68.74903300    -109.45665588      21.78877340        6        1
Ga      66.74327361    -109.56164319      18.20020141        3        1
Ga      66.68597801    -109.57088750      20.68235880        4        1
S       65.78078639    -111.38013112      17.08996005        5        1
S       65.72478216    -111.40455471      21.78305356        6        1
Ga      63.70833962    -111.49738165      18.19580287        3        1
Ga      63.66009120    -111.51357277      20.67759703        4        1
S       62.73790332    -113.31173651      17.08934818        5        1
S       62.69551422    -113.34346452      21.78024590        6        1
Ga      60.66555159    -113.42501614      18.19499720        3        1
Ga      60.62879554    -113.44833073      20.67637939        4        1
S       59.68942763    -115.23763819      17.09187984        5        1
S       59.66221691    -115.27575006      21.78065525        6        1
Ga      57.61749741    -115.35010866      18.19715136        3        1
Ga      57.59363019    -115.37877006      20.67817651        4        1
S       56.63765664    -117.16315387      17.09675820        5        1
S       56.62657071    -117.20493268      21.78389091        6        1
Ga      54.56655148    -117.27734932      18.20166181        3        1
Ga      54.55649931    -117.30874510      20.68244881        4        1
S       53.58493099    -119.09315163      17.10381514        5        1
S       53.59087022    -119.13469371      21.78999427        6        1
Ga      51.51534249    -119.21044456      18.20879632        3        1
Ga      51.51967306    -119.24193250      20.68950059        4        1
S       47.40756453      -0.98155413      17.11391288        5        1
S       47.43091083      -1.01826198      21.80001011        6        1
Ga      45.34059489      -1.10230574      18.21997712        3        1
Ga      45.35882681      -1.13151645      20.70076934        4        1
S       44.36434444      -2.93274122      17.12911041        5        1
S       44.40336111      -2.95992373      21.81571068        6        1
Ga      16.21632618     -94.13959147      18.27746000        3        1
Ga      16.19365982     -94.16891480      20.75828880        4        1
S       15.30135443     -95.98916964      17.16990782        5        1
S       15.27680392     -96.03212641      21.85607628        6        1
Ga      13.24697590     -96.12524039      18.27961680        3        1
Ga      13.21004165     -96.14825490      20.76060316        4        1
S       12.33053206     -97.97251677      17.16795954        5        1
S       12.28585848     -98.01031174      21.85377234        6        1
Ga      10.27067841     -98.10981560      18.27195128        3        1
Ga      10.22117363     -98.12732269      20.75336460        4        1
S        9.35111810     -99.95408885      17.15665867        5        1
S        9.28952287     -99.98660546      21.84384829        6        1
Ga       7.28568779    -100.09134217      18.25816859        3        1
Ga       7.22621330    -100.10408771      20.74006193        4        1
S        6.36049951    -101.93147263      17.14087891        5        1
S        6.28773661    -101.95920803      21.83058685        6        1
Ga       4.29121712    -102.06925782      18.24312002        3        1
Ga       4.22497754    -102.07757671      20.72533855        4        1
S        3.35806742    -103.90371045      17.12550677        5        1
S        3.28001633    -103.92746149      21.81756492        6        1
Ga      69.60479151    -104.03966387      18.22908547        3        1
Ga      69.53564112    -104.04542195      20.71142694        4        1
S       68.66133808    -105.86690713      17.11284091        5        1
S       68.58410338    -105.88938348      21.80582592        6        1
Ga      66.58832970    -105.99667451      18.21684325        3        1
Ga      66.52113046    -106.00417023      20.69904683        4        1
S       65.63318516    -107.81701611      17.10402799        5        1
S       65.56336387    -107.84216479      21.79604282        6        1
Ga      63.55941861    -107.93936462      18.20809899        3        1
Ga      63.49916351    -107.95229755      20.68985408        4        1
S       62.59355456    -109.75509328      17.09981809        5        1
S       62.53620485    -109.78512782      21.78962901        6        1
Ga      60.51968505    -109.87240242      18.20374901        3        1
Ga      60.47014375    -109.89142636      20.68493733        4        1
S       59.54568327    -111.68615682      17.09954843        5        1
S       59.50332536    -111.72044348      21.78701347        6        1
Ga      57.47205172    -111.80168879      18.20288948        3        1
Ga      57.43547347    -111.82500007      20.68355950        4        1
S       56.49257013    -113.61577555      17.10173622        5        1
S       56.46626251    -113.65158817      21.78733634        6        1
Ga      54.41942593    -113.73190960      18.20409602        3        1
Ga      54.39708686    -113.75673915      20.68440767        4        1
S       53.43686764    -115.54837567      17.10523537        5        1
S       53.42724305    -115.58205885      21.78976533        6        1
Ga      51.36463854    -115.66617778      18.20669536        3        1
Ga      51.35727133    -115.69000070      20.68683550        4        1
S       50.38152818    -117.48718766      17.10995227        5        1
S       50.38905599    -117.51504956      21.79442933        6        1
Ga      48.31108173    -117.60680508      18.21129761        3        1
Ga      48.31866572    -117.62786499      20.69150538        4        1
S       47.33066071    -119.43471293      17.11718285        5        1
S       47.35480178    -119.45362361      21.80268622        6        1
Ga      45.26319340    -119.55635986      18.21992268        3        1
Ga      45.28416598    -119.57339798      20.70039987        4        1
S       41.16241560      -1.34307880      17.12954829        5        1
S       41.20017204      -1.35056769      21.81643116        6        1
Ga      39.09875773      -1.46805075      18.23470552        3        1
Ga      39.12948529      -1.47901671      20.71544957        4        1
S       38.13515136      -3.31525233      17.14853789        5        1
S       38.18025205      -3.30941002      21.83585044        6        1
Ga      18.95863892     -88.55682975      18.27857732        3        1
Ga      18.96461536     -88.59816375      20.75968148        4        1
S       18.04636625     -90.41020881      17.18008251        5        1
S       18.05653014     -90.45975876      21.86649695        6        1
Ga      15.99421772     -90.53810681      18.29808841        3        1
Ga      15.98497155     -90.57260811      20.77889217        4        1
S       15.08293948     -92.38982453      17.19503757        5        1
S       15.07375997     -92.43692701      21.87968964        6        1
Ga      13.02841352     -92.52601363      18.30765496        3        1
Ga      13.00391948     -92.55389825      20.78835328        4        1
S       12.11675481     -94.37507673      17.19946386        5        1
S       12.08684102     -94.41890660      21.88288152        6        1
Ga      10.05759817     -94.51488001      18.30564791        3        1
Ga      10.01910450     -94.53690220      20.78654123        4        1
S        9.14406082     -96.36103879      17.19265510        5        1
S        9.09512576     -96.40068020      21.87624149        6        1
Ga       7.07963744     -96.50199165      18.29421564        3        1
Ga       7.02926227     -96.51847219      20.77548537        4        1
S        6.16242022     -98.34474660      17.17770161        5        1
S        6.09854423     -98.37937797      21.86295448        6        1
Ga       4.09376676     -98.48626134      18.27776201        3        1
Ga       4.03392438     -98.49706156      20.75943306        4        1
S        3.17078853    -100.32451129      17.15942644        5        1
S        3.09667970    -100.35360514      21.84714070        6        1
Ga      69.41756940    -100.46434891      18.25979195        3        1
Ga      69.35110373    -100.47051769      20.74182632        4        1
S       68.48607615    -102.29628222      17.14127144        5        1
S       68.40692697    -102.32140812      21.83110011        6        1
Ga      66.41263194    -102.43037649      18.24203468        3        1
Ga      66.34353423    -102.43552294      20.72420921        4        1
S       65.46913221    -104.25517433      17.12585030        5        1
S       65.39199173    -104.27986438      21.81612541        6        1
Ga      63.39446112    -104.38164711      18.22697648        3        1
Ga      63.32818627    -104.38987926      20.70882162        4        1
S       62.43764940    -106.20095643      17.11546099        5        1
S       62.36960053    -106.22764293      21.80428769        6        1
Ga      60.36250495    -106.32148760      18.21677577        3        1
Ga      60.30445940    -106.33430501      20.69794834        4        1
S       59.39439673    -108.13815116      17.11016591        5        1
S       59.33990262    -108.16650907      21.79678675        6        1
Ga      57.31922305    -108.25574335      18.21092714        3        1
Ga      57.27321238    -108.27176215      20.69142608        4        1
S       56.34318693    -110.07232998      17.10803782        5        1
S       56.30416726    -110.09992775      21.79278873        6        1
Ga      54.26821703    -110.18914279      18.20752870        3        1
Ga      54.23634159    -110.20579635      20.68754941        4        1
S       53.28748192    -112.00763161      17.10713716        5        1
S       53.26464135    -112.03137401      21.79083534        6        1
Ga      51.21301191    -112.12448764      18.20516400        3        1
Ga      51.19625963    -112.13957587      20.68496830        4        1
S       50.23050538    -113.94650866      17.10660449        5        1
S       50.22418828    -113.96382400      21.79027074        6        1
Ga      48.15723692    -114.06357165      18.20379061        3        1
Ga      48.15569277    -114.07586826      20.68363002        4        1
S       47.17596521    -115.89068867      17.10710477        5        1
S       47.18604298    -115.89995534      21.79181609        6        1
Ga      45.10496647    -116.00839921      18.20493830        3        1
Ga      45.11760116    -116.01747512      20.68506689        4        1
S       44.12821326    -117.84238884      17.11103729        5        1
S       44.15336541    -117.84256976      21.79751315        6        1
Ga      42.06077277    -117.96242842      18.21137019        3        1
Ga      42.08493662    -117.96737610      20.69188421        4        1
S       41.09196201    -119.80485450      17.12133525        5        1
S       41.12830815    -119.79465015      21.80933502        6        1
Ga      39.02860937    -119.92983561      18.22471400        3        1
Ga      39.06003187    -119.92785066      20.70551201        4        1
S       34.94313880      -1.73032212      17.13811571        5        1
S       34.98405392      -1.70794779      21.82642024        6        1
Ga      21.70578612     -82.99587576      18.25154979        3        1
Ga      21.73760632     -83.04753344      20.73319665        4        1
S       20.78492802     -84.84926671      17.16238756        5        1
S       20.82582384     -84.90004087      21.84915623        6        1
Ga      18.73264878     -84.95963618      18.28120323        3        1
Ga      18.75241255     -85.00607086      20.76263686        4        1
S       17.81739083     -86.81480649      17.19024122        5        1
S       17.84403697     -86.86389742      21.87559758        6        1
Ga      15.76473536     -86.94012875      18.30942262        3        1
Ga      15.77029541     -86.97844280      20.79037447        4        1
S       14.85304793     -88.79423392      17.21374413        5        1
S       14.86142885     -88.84071800      21.89708776        6        1
Ga      12.79798933     -88.92957747      18.32869600        3        1
Ga      12.78877229     -88.96010744      20.80934102        4        1
S       11.88830110     -90.78129755      17.22689267        5        1
S       11.87624670     -90.82516008      21.90844201        6        1
Ga       9.82889865     -90.92179560      18.33536387        3        1
Ga       9.80545344     -90.94576263      20.81601853        4        1
S        8.91923639     -92.77091575      17.22757321        5        1
S        8.88750554     -92.81156055      21.90825521        6        1
Ga       6.85474498     -92.91330940      18.33008521        3        1
Ga       6.81873479     -92.93128422      20.81091665        4        1
S        5.94328393     -94.75988301      17.21724194        5        1
S        5.89492649     -94.79600068      21.89837600        6        1
Ga       3.87454033     -94.90262106      18.31610085        3        1
Ga       3.82792367     -94.91433110      20.79717384        4        1
S        2.95952916     -96.74605859      17.19974172        5        1
S        2.89821988     -96.77627163      21.88251391        6        1
Ga      69.20612887     -96.88699269      18.29713856        3        1
Ga      69.15086947     -96.89286707      20.77855364        4        1
S       68.28542502     -98.72560451      17.17860484        5        1
S       68.21472463     -98.75036624      21.86382044        6        1
Ga      66.21168740     -98.86154903      18.27548930        3        1
Ga      66.15030663     -98.86398649      20.75730535        4        1
S       65.28161495    -100.69355025      17.15668601        5        1
S       65.20669886    -100.71547841      21.84406362        6        1
Ga      63.20639916    -100.82255020      18.25370892        3        1
Ga      63.14296188    -100.82507614      20.73557127        4        1
S       62.26297471    -102.64822277      17.13786918        5        1
S       62.19121152    -102.66943834      21.82562157        6        1
Ga      60.18692480    -102.77081517      18.23540649        3        1
Ga      60.12714295    -102.77573204      20.71675756        4        1
S       59.22965130    -104.59261553      17.12456022        5        1
S       59.16756410    -104.61299433      21.81103674        6        1
Ga      57.15326282    -104.71094501      18.22196006        3        1
Ga      57.10252328    -104.71794806      20.70256643        4        1
S       56.18508092    -106.53161960      17.11572717        5        1
S       56.13635770    -106.54931186      21.80060947        6        1
Ga      54.10861161    -106.64755378      18.21203758        3        1
Ga      54.07044373    -106.65482867      20.69204984        4        1
S       53.13339751    -108.46917082      17.10908284        5        1
S       53.09962146    -108.48197890      21.79293838        6        1
Ga      51.05714934    -108.58357547      18.20389760        3        1
Ga      51.03326710    -108.58940059      20.68361430        4        1
S       50.07844609    -110.40749465      17.10314838        5        1
S       50.06022923    -110.41400824      21.78685409        6        1
Ga      48.00297045    -110.52068901      18.19691751        3        1
Ga      47.99381394    -110.52432859      20.67663836        4        1
S       47.02385141    -112.34806963      17.09802764        5        1
S       47.02146549    -112.34792357      21.78247829        6        1
Ga      44.95018254    -112.46071329      18.19206905        3        1
Ga      44.95512829    -112.46225018      20.67203228        4        1
S       43.97356530    -114.29286735      17.09544398        5        1
S       43.98668231    -114.28627269      21.78140860        6        1
Ga      41.90310613    -114.40682643      18.19178615        3        1
Ga      41.92029663    -114.40618255      20.67211429        4        1
S       40.93197812    -116.24546322      17.09844851        5        1
S       40.95865652    -116.23195682      21.78615928        6        1
Ga      38.86607011    -116.36366924      18.19879678        3        1
Ga      38.89207600    -116.35909142      20.67944954        4        1
S       37.90314611    -118.20993369      17.10924852        5        1
S       37.93854020    -118.18775823      21.79797795        6        1
Ga      35.84183197    -118.33488407      18.21306381        3        1
Ga      35.87208555    -118.32238838      20.69381621        4        1
S       31.76138950      -0.13739584      17.12555244        5        1
S       31.79829711      -0.10432576      21.81396298        6        1
Ga      29.70266969      -0.26874660      18.22897206        3        1
Ga      29.73302745      -0.24395229      20.70970610        4        1
S       28.75793704      -2.12539689      17.13994350        5        1
S       28.78977828      -2.07989057      21.82737141        6        1
Ga      24.48879959     -77.47470490      18.21680673        3        1
Ga      24.52965758     -77.52703490      20.69878680        4        1
S       23.54563791     -79.31772726      17.12603747        5        1
S       23.60438624     -79.36914511      21.81563574        6        1
Ga      21.49411970     -79.40910498      18.24102479        3        1
Ga      21.53263952     -79.46521304      20.72306153        4        1
S       20.56131250     -81.25950311      17.15485687        5        1
S       20.61513054     -81.31222954      21.84228783        6        1
Ga      18.51040984     -81.36713149      18.27332457        3        1
Ga      18.54114626     -81.41882159      20.75511915        4        1
S       17.58719928     -83.22258615      17.18903435        5        1
S       17.62939045     -83.27131247      21.87375268        6        1
Ga      15.53509308     -83.34540289      18.30840328        3        1
Ga      15.55420752     -83.38757299      20.78961260        4        1
S       14.61869330     -85.20163863      17.22122064        5        1
S       14.64457444     -85.24537253      21.90353313        6        1
Ga      12.56386566     -85.33561243      18.33765494        3        1
Ga      12.56973098     -85.36784565      20.81844546        4        1
S       11.65191855     -87.19001755      17.24418438        5        1
S       11.65869333     -87.22996245      21.92471220        6        1
Ga       9.59282965     -87.33041291      18.35470360        3        1
Ga       9.58534066     -87.35447979      20.83553126        4        1
S        8.68350950     -89.18271362      17.25421579        5        1
S        8.67063273     -89.21923648      21.93362405        6        1
Ga       6.61918342     -89.32538534      18.35824666        3        1
Ga       6.59926206     -89.34274143      20.83925751        4        1
S        5.71043949     -91.17607452      17.25151384        5        1
S        5.67998312     -91.20828359      21.93050197        6        1
Ga       3.64137253     -91.31879775      18.35041769        3        1
Ga       3.61064726     -91.32945305      20.83142417        4        1
S        2.73141206     -93.16775853      17.23851843        5        1
S        2.68655343     -93.19403948      21.91805053        6        1
Ga      68.97729693     -93.30842601      18.33425260        3        1
Ga      68.93737822     -93.31239521      20.81520443        4        1
S       68.06418974     -95.15412950      17.21824048        5        1
S       68.00789487     -95.17424220      21.89950010        6        1
Ga      65.98969517     -95.29017453      18.31203864        3        1
Ga      65.94227732     -95.28905334      20.79320640        4        1
S       65.07072866     -97.13047407      17.19321164        5        1
S       65.00624167     -97.14631810      21.87710284        6        1
Ga      62.99474843     -97.26040764      18.28602021        3        1
Ga      62.94222642     -97.25676312      20.76751978        4        1
S       62.06581908     -99.09427811      17.16685959        5        1
S       61.99836266     -99.10772195      21.85306118        6        1
Ga      59.98891177     -99.21786946      18.25987615        3        1
Ga      59.93522851     -99.21410835      20.74130992        4        1
S       59.04666378    -101.04656144      17.14373560        5        1
S       58.98283982    -101.05765892      21.83054682        6        1
Ga      56.96922791    -101.16470151      18.23712732        3        1
Ga      56.91970364    -101.16180791      20.71804419        4        1
S       56.01402114    -102.99066429      17.12572119        5        1
S       55.95924804    -102.99814536      21.81176457        6        1
Ga      53.93628613    -103.10470495      18.21867457        3        1
Ga      53.89568121    -103.10214014      20.69898308        4        1
S       52.97128122    -104.93013543      17.11165683        5        1
S       52.92882618    -104.93264714      21.79671540        6        1
Ga      50.89356784    -105.04105301      18.20360049        3        1
Ga      50.86485562    -105.03785365      20.68353054        4        1
S       49.92250153    -106.86737957      17.09991016        5        1
S       49.89410461    -106.86442447      21.78449560        6        1
Ga      47.84541310    -106.97579321      18.19117157        3        1
Ga      47.82987293    -106.97158976      20.67101837        4        1
S       46.87158141    -108.80402804      17.08999180        5        1
S       46.85822612    -108.79618135      21.77480883        6        1
Ga      44.79610331    -108.91082859      18.18170653        3        1
Ga      44.79379105    -108.90601404      20.66168278        4        1
S       43.82238481    -110.74203542      17.08282188        5        1
S       43.82450480    -110.73042308      21.76857405        6        1
Ga      41.74995600    -110.84912939      18.17678899        3        1
Ga      41.75975072    -110.84417215      20.65702292        4        1
S       40.77911589    -112.68491763      17.08070844        5        1
S       40.79598524    -112.66998629      21.76782469        6        1
Ga      38.71135756    -112.79533492      18.17888671        3        1
Ga      38.73070917    -112.78943973      20.65935736        4        1
S       37.74618817    -114.63748442      17.08646450        5        1
S       37.77462720    -114.61793008      21.77463614        6        1
Ga      35.68397151    -114.75457410      18.18950461        3        1
Ga      35.70887097    -114.74449960      20.67005049        4        1
S       34.72664225    -116.60354996      17.10025767        5        1
S       34.76027857    -116.57652294      21.78835949        6        1
Ga      32.66883500    -116.72866043      18.20562597        3        1
Ga      32.69483124    -116.70949376      20.68602948        4        1
S       31.71990377    -118.58264290      17.11651623        5        1
S       31.75098562    -118.54526785      21.80360881        6        1
Ga      29.66341369    -118.71337321      18.21934569        3        1
Ga      29.68721684    -118.68108042      20.69966357        4        1
S       25.59480477      -0.51958442      17.12696918        5        1
S       25.61794360      -0.46967011      21.81309803        6        1
Ga      23.53610283      -0.64970643      18.22396335        3        1
Ga      23.55672531      -0.60341582      20.70453738        4        1
S       22.59952075      -2.50738926      17.12701181        5        1
S       22.61463419      -2.44437387      21.81335319        6        1
Ga      27.31328530     -71.99365379      18.19410040        3        1
Ga      27.34423465     -72.03309118      20.67633128        4        1
S       26.35378503     -73.82361732      17.09479465        5        1
S       26.40508091     -73.86806687      21.78878768        6        1
Ga      24.29871816     -73.90593571      18.20734775        3        1
Ga      24.33585471     -73.95683569      20.68959720        4        1
S       23.34412615     -75.74104190      17.11290824        5        1
S       23.40298584     -75.79451459      21.80543196        6        1
Ga      21.29166302     -75.83295162      18.22843391        3        1
Ga      21.33151360     -75.89032323      20.71069351        4        1
S       20.34600325     -77.67661284      17.14060699        5        1
S       20.40662148     -77.73213008      21.83028762        6        1
Ga      18.29527806     -77.78245693      18.25894372        3        1
Ga      18.33272963     -77.83803631      20.74099117        4        1
S       17.36078361     -79.63485565      17.17713189        5        1
S       17.41525357     -79.68490021      21.86267583        6        1
Ga      15.30952774     -79.75508992      18.29627467        3        1
Ga      15.33953151     -79.80144618      20.77774246        4        1
S       14.38501443     -81.61216127      17.21585098        5        1
S       14.42666975     -81.65367676      21.89773406        6        1
Ga      12.33122678     -81.74388199      18.33287383        3        1
Ga      12.35049130     -81.77834086      20.81382989        4        1
S       11.41362429     -83.60107611      17.24813226        5        1
S       11.43851325     -83.63557946      21.92795298        6        1
Ga       9.35598714     -83.74041121      18.36005687        3        1
Ga       9.36333501     -83.76408549      20.84112272        4        1
S        8.44301890     -85.59598179      17.26794918        5        1
S        8.44924472     -85.62521718      21.94707040        6        1
Ga       6.38039050     -85.73838112      18.37334583        3        1
Ga       6.37597320     -85.75356693      20.85489845        4        1
S        5.47049642     -87.59286702      17.27392011        5        1
S        5.45839978     -87.61699860      21.95285895        6        1
Ga       3.40257673     -87.73504289      18.37342180        3        1
Ga       3.38736951     -87.74288121      20.85507110        4        1
S        2.49400437     -89.58899829      17.26796016        5        1
S        2.46594788     -89.60692531      21.94664363        6        1
Ga      68.73990256     -89.72901145      18.36283369        3        1
Ga      68.71544677     -89.72942800      20.84403307        4        1
S       67.83091473     -91.58122354      17.25194270        5        1
S       67.78984162     -91.59239371      21.93118023        6        1
Ga      65.75548905     -91.71688298      18.34340529        3        1
Ga      65.72338068     -91.71081987      20.82423864        4        1
S       64.84378318     -93.56489828      17.22775218        5        1
S       64.79270804     -93.57091007      21.90899386        6        1
Ga      62.76656258     -93.69487612      18.31710095        3        1
Ga      62.72841893     -93.68446120      20.79802673        4        1
S       61.84905987     -95.53687080      17.19813928        5        1
S       61.79142079     -95.53990594      21.88232441        6        1
Ga      59.77081515     -95.66074988      18.28685404        3        1
Ga      59.72887666     -95.64824403      20.76801500        4        1
S       58.84388814     -97.49669728      17.16730267        5        1
S       58.78433999     -97.49751354      21.85394250        6        1
Ga      56.76505633     -97.61438734      18.25650381        3        1
Ga      56.72279633     -97.60163866      20.73759215        4        1
S       55.82627914     -99.44601503      17.13959667        5        1
S       55.77019000     -99.44391404      21.82701804        6        1
Ga      53.74715460     -99.55799385      18.22916578        3        1
Ga      53.70888615     -99.54586426      20.70988779        4        1
S       52.79699079    -101.38746361      17.11674040        5        1
S       52.74902684    -101.38152725      21.80367532        6        1
Ga      50.71794501    -101.49461557      18.20627038        3        1
Ga      50.68745246    -101.48314491      20.68662795        4        1
S       49.75890483    -103.32356681      17.09840238        5        1
S       49.72242253    -103.31367830      21.78458695        6        1
Ga      47.68062780    -103.42681403      18.18813742        3        1
Ga      47.66030023    -103.41604083      20.66828777        4        1
S       46.71575795    -105.25629445      17.08398440        5        1
S       46.69289663    -105.24347684      21.76979200        6        1
Ga      44.63922958    -105.35683977      18.17481805        3        1
Ga      44.63011028    -105.34732387      20.65493735        4        1
S       43.67145507    -107.18782924      17.07359455        5        1
S       43.66342217    -107.17374438      21.75957310        6        1
Ga      41.59795049    -107.28768512      18.16681638        3        1
Ga      41.59990442    -107.28014014      20.64702164        4        1
S       40.63011063    -109.12158194      17.06836684        5        1
S       40.63700322    -109.10740141      21.75496693        6        1
Ga      38.56110446    -109.22387597      18.16547419        3        1
Ga      38.57266391    -109.21814301      20.64579968        4        1
S       37.59612301    -111.06264720      17.07037111        5        1
S       37.61612904    -111.04770648      21.75767629        6        1
Ga      35.53286380    -111.17122916      18.17245193        3        1
Ga      35.55094411    -111.16491159      20.65282265        4        1
S       34.57351463    -113.01641687      17.08105027        5        1
S       34.60169620    -112.99771759      21.76841743        6        1
Ga      32.51579593    -113.13399869      18.18708619        3        1
Ga      32.53615241    -113.12227749      20.66728977        4        1
S       31.56384392    -114.98513287      17.09753850        5        1
S       31.59245492    -114.95869882      21.78398844        6        1
Ga      29.50920422    -115.11100632      18.20344196        3        1
Ga      29.52779353    -115.08863929      20.68340312        4        1
S       28.56468965    -116.96585880      17.11204262        5        1
S       28.58626317    -116.92833733      21.79731755        6        1
Ga      26.50929118    -117.09501040      18.21329087        3        1
Ga      26.52378445    -117.05911483      20.69328493        4        1
S       25.57043762    -118.95153674      17.11750757        5        1
S       25.58185892    -118.90096624      21.80241783        6        1
Ga      23.51103438    -119.07540223      18.21310599        3        1
Ga      23.52175538    -119.02773150      20.69355059        4        1
S       19.44796103      -0.88143968      17.11263291        5        1
S       19.45227891      -0.81998360      21.79910996        6        1
Ga      17.38404892      -0.99256338      18.20603687        3        1
Ga      17.39358610      -0.93964177      20.68716716        4        1
S       16.44866014      -2.84775698      17.10215263        5        1
S       16.45225349      -2.78228699      21.79184586        6        1
Ga      30.16417596     -66.52688723      18.18315076        3        1
Ga      30.17658588     -66.54933703      20.66551480        4        1
S       29.20062218     -68.35061983      17.07839650        5        1
S       29.22856487     -68.38116661      21.77444821        6        1
Ga      27.13984407     -68.43594637      18.18910622        3        1
Ga      27.16129683     -68.47069320      20.67144595        4        1
S       26.17522521     -70.25942186      17.08699929        5        1
S       26.21561176     -70.30261116      21.78248818        6        1
Ga      24.11621913     -70.34751080      18.19941062        3        1
Ga      24.14651676     -70.39353061      20.68175935        4        1
S       23.15372952     -72.17443857      17.10137749        5        1
S       23.20595879     -72.22719061      21.79593651        6        1
Ga      21.09757708     -72.26900406      18.21642379        3        1
Ga      21.13480858     -72.32319154      20.69880015        4        1
S       20.14127565     -74.10382427      17.12479681        5        1
S       20.20179510     -74.16018173      21.81707000        6        1
Ga      18.08820688     -74.20896069      18.24265918        3        1
Ga      18.12831668     -74.26477945      20.72487311        4        1
S       17.14204453     -76.05462693      17.15896014        5        1
S       17.20359417     -76.10634070      21.84682313        6        1
Ga      15.09038108     -76.17227120      18.27786053        3        1
Ga      15.12800915     -76.22148972      20.75957294        4        1
S       14.15562688     -78.02706420      17.19978300        5        1
S       14.20996005     -78.06819689      21.88266499        6        1
Ga      12.10287885     -78.15578166      18.31706468        3        1
Ga      12.13328972     -78.19301336      20.79817041        4        1
S       11.17739939     -80.01464035      17.23873061        5        1
S       11.21852457     -80.04480798      21.91842825        6        1
Ga       9.12186908     -80.15160572      18.35177618        3        1
Ga       9.14227189     -80.17585681      20.83280956        4        1
S        8.20273777     -82.01057066      17.26767324        5        1
S        8.22707451     -82.03207360      21.94647521        6        1
Ga       6.14309838     -82.15190086      18.37429937        3        1
Ga       6.15255835     -82.16490206      20.85597954        4        1
S        5.22867064     -84.01004141      17.28221237        5        1
S        5.23466420     -84.02432842      21.96159989        6        1
Ga       3.16394763     -84.15161624      18.38242881        3        1
Ga       3.16260375     -84.15556027      20.86464487        4        1
S       70.57116341     -86.00965285      17.28348252        5        1
S       70.55963383     -86.01670364      21.96296457        6        1
Ga      68.50106740     -86.14904187      18.37805166        3        1
Ga      68.49025256     -86.14469220      20.85991299        4        1
S       67.59198105     -88.00657601      17.27354556        5        1
S       67.56560806     -88.00598273      21.95252948        6        1
Ga      65.51716333     -88.14197583      18.36313227        3        1
Ga      65.49890107     -88.12982801      20.84419024        4        1
S       64.60838495     -89.99660724      17.25320469        5        1
S       64.57061226     -89.98970668      21.93292830        6        1
Ga      62.53040575     -90.12643157      18.33941226        3        1
Ga      62.50640125     -90.10839086      20.82006775        4        1
S       61.61957608     -91.97565664      17.22465232        5        1
S       61.57376495     -91.96529194      21.90678690        6        1
Ga      59.53993209     -92.09922085      18.30956799        3        1
Ga      59.51163009     -92.07779362      20.79032482        4        1
S       58.62423892     -93.94201028      17.19129493        5        1
S       58.57360591     -93.93039658      21.87657432        6        1
Ga      56.54375906     -94.05877845      18.27659685        3        1
Ga      56.51300055     -94.03647961      20.75753729        4        1
S       55.62028770     -95.89598738      17.15729859        5        1
S       55.56862983     -95.88376274      21.84496846        6        1
Ga      53.53956950     -96.00574169      18.24372516        3        1
Ga      53.50884782     -95.98459618      20.72464442        4        1
S       52.60625478     -97.83929191      17.12653044        5        1
S       52.55795701     -97.82610083      21.81498806        6        1
Ga      50.52596190     -97.94260493      18.21418486        3        1
Ga      50.49818419     -97.92373321      20.69492945        4        1
S       49.58257184     -99.77428759      17.10124110        5        1
S       49.54182792     -99.75993966      21.78926697        6        1
Ga      47.50345131     -99.87228355      18.19036679        3        1
Ga      47.48136887     -99.85626131      20.67088161        4        1
S       46.55148847    -101.70334700      17.08205645        5        1
S       46.52155882    -101.68856483      21.76929508        6        1
Ga      44.47442946    -101.79759520      18.17315648        3        1
Ga      44.46005206    -101.78501041      20.65349039        4        1
S       43.51624843    -103.62897954      17.06880633        5        1
S       43.49926892    -103.61530564      21.75544118        6        1
Ga      41.44220575    -103.72175274      18.16244042        3        1
Ga      41.43664870    -103.71326861      20.64269709        4        1
S       40.48065524    -105.55469471      17.06137677        5        1
S       40.47757948    -105.54346845      21.74784127        6        1
Ga      38.41076855    -105.64917807      18.15832514        3        1
Ga      38.41392319    -105.64486432      20.63857705        4        1
S       37.44889483    -107.48551323      17.06054866        5        1
S       37.45917670    -107.47657641      21.74721429        6        1
Ga      35.38439681    -107.58574436      18.16180446        3        1
Ga      35.39453696    -107.58388912      20.64206896        4        1
S       34.42539143    -109.42754229      17.06781895        5        1
S       34.44587125    -109.41824369      21.75456202        6        1
Ga      32.36682301    -109.53710578      18.17350848        3        1
Ga      32.38048778    -109.53345738      20.65366550        4        1
S       31.41341064    -111.38519046      17.08267081        5        1
S       31.43748046    -111.37102510      21.76874108        6        1
Ga      29.35931635    -111.50505819      18.19026316        3        1
Ga      29.37225630    -111.49382229      20.67013086        4        1
S       28.41277488    -113.35795092      17.09945495        5        1
S       28.43211031    -113.33453742      21.78429183        6        1
Ga      26.35964071    -113.48466671      18.20427455        3        1
Ga      26.36844784    -113.46137083      20.68398287        4        1
S       25.41932016    -115.34014269      17.11001882        5        1
S       25.42792329    -115.30438152      21.79401778        6        1
Ga      23.36317075    -115.46607965      18.20910433        3        1
Ga      23.36663317    -115.43008442      20.68907061        4        1
S       22.42628831    -117.32190527      17.10999857        5        1
S       22.42419177    -117.27389223      21.79469799        6        1
Ga      20.36495274    -117.43830472      18.20489724        3        1
Ga      20.36476580    -117.39429584      20.68551529        4        1
S       19.42815696    -119.29246511      17.10168054        5        1
S       19.42116797    -119.23761657      21.78904121        6        1
Ga      17.36283449    -119.39584103      18.19680411        3        1
Ga      17.36239090    -119.35125236      20.67814430        4        1
S       13.29792249      -1.19736192      17.09111146        5        1
S       13.29264747      -1.14339619      21.78199524        6        1
Ga      11.23169221      -1.29026800      18.18960418        3        1
Ga      11.23363878      -1.25104210      20.67150772        4        1
S       10.29307427      -3.13998458      17.08251667        5        1
S       10.29312628      -3.09300647      21.77660581        6        1
Ga      36.05569700     -59.12236972      18.18090310        3        1
Ga      36.03925035     -59.12092255      20.66329509        4        1
S       35.09910367     -60.95194620      17.07180458        5        1
S       35.08739395     -60.95556414      21.76859928        6        1
Ga      33.03344630     -61.04939649      18.18022032        3        1
Ga      33.02403695     -61.05764317      20.66260630        4        1
S       32.07141046     -62.87332938      17.07251365        5        1
S       32.07089038     -62.88968391      21.76898827        6        1
Ga      30.00627284     -62.96805348      18.18163995        3        1
Ga      30.00572628     -62.98706018      20.66396462        4        1
S       29.04006045     -64.78811709      17.07593395        5        1
S       29.05216859     -64.81720854      21.77170955        6        1
Ga      26.97547118     -64.88171343      18.18570787        3        1
Ga      26.98509481     -64.91150683      20.66799310        4        1
S       26.00703068     -66.70025838      17.08237852        5        1
S       26.03290087     -66.74098421      21.77751610        6        1
Ga      23.94359096     -66.79512846      18.19324183        3        1
Ga      23.96399423     -66.83496423      20.67554383        4        1
S       22.97537269     -68.61530477      17.09317653        5        1
S       23.01568703     -68.66525553      21.78775002        6        1
Ga      20.91429616     -68.71430871      18.20615198        3        1
Ga      20.94486876     -68.76231798      20.68852977        4        1
S       19.94958098     -70.54046782      17.11125278        5        1
S       20.00322751     -70.59501387      21.80466442        6        1
Ga      17.89208799     -70.64670290      18.22728362        3        1
Ga      17.93026125     -70.69870510      20.70961325        4        1
S       16.93509297     -72.48342666      17.13985063        5        1
S       16.99709770     -72.53529550      21.83015659        6        1
Ga      14.88099608     -72.59932001      18.25804518        3        1
Ga      14.92200147     -72.64839847      20.74000309        4        1
S       13.93501928     -74.44814020      17.17820258        5        1
S       13.99695654     -74.48988850      21.86346371        6        1
Ga      11.88217335     -74.57392857      18.29574267        3        1
Ga      11.92042625     -74.61313798      20.77705589        4        1
S       10.94704087     -76.43135945      17.21949076        5        1
S       11.00090012     -76.45969474      21.90033170        6        1
Ga       8.89321183     -76.56533675      18.33357615        3        1
Ga       8.92427978     -76.59115949      20.81447505        4        1
S        7.96632171     -78.42631788      17.25506062        5        1
S        8.00645663     -78.44227582      21.93377878        6        1
Ga       5.90974803     -78.56562495      18.36313840        3        1
Ga       5.93123712     -78.57803214      20.84435429        4        1
S        4.98897032     -80.42714248      17.27780056        5        1
S        5.01185664     -80.43277103      21.95677181        6        1
Ga       2.92818360     -80.56789544      18.37882391        3        1
Ga       2.93917083     -80.56869293      20.86074714        4        1
S       70.33046792     -82.42944414      17.28591391        5        1
S       70.33503373     -82.42581419      21.96565137        6        1
Ga      68.26422250     -82.56842357      18.38024910        3        1
Ga      68.26545463     -82.55923476      20.86228589        4        1
S       67.35190349     -84.43004997      17.28153479        5        1
S       67.33994397     -84.41733867      21.96080290        6        1
Ga      65.27973847     -84.56542312      18.36959874        3        1
Ga      65.27348944     -84.54695812      20.85097228        4        1
S       64.36988335     -86.42537068      17.26593290        5        1
S       64.34518680     -86.40460951      21.94492736        6        1
Ga      62.29289110     -86.55527707      18.34927675        3        1
Ga      62.28149869     -86.52922527      20.83000132        4        1
S       61.38393058     -88.41075290      17.24073797        5        1
S       61.35050486     -88.38511677      21.92121606        6        1
Ga      59.30404778     -88.53377682      18.32214051        3        1
Ga      59.28895350     -88.50311076      20.80273682        4        1
S       58.39395268     -90.38295314      17.20915368        5        1
S       58.35487114     -90.35622338      21.89253193        6        1
Ga      56.31259766     -90.49810165      18.29104262        3        1
Ga      56.29483340     -90.46623861      20.77179891        4        1
S       55.39909371     -92.34095471      17.17448379        5        1
S       55.35698909     -92.31595374      21.86102025        6        1
Ga      53.31730250     -92.44761194      18.25837286        3        1
Ga      53.29784346     -92.41780103      20.73923603        4        1
S       52.39787996     -94.28557697      17.14040266        5        1
S       52.35570603     -94.26373225      21.82898110        6        1
Ga      50.31671173     -94.38432235      18.22683592        3        1
Ga      50.29669903     -94.35874998      20.70766972        4        1
S       49.38917242     -96.21917312      17.11042772        5        1
S       49.35027984     -96.20074918      21.79944653        6        1
Ga      47.30954776     -96.31157064      18.19956694        3        1
Ga      47.29061768     -96.29128162      20.68024739        4        1
S       46.37295264     -98.14470220      17.08683599        5        1
S       46.34065852     -98.12970282      21.77524476        6        1
Ga      44.29562335     -98.23273091      18.17874709        3        1
Ga      44.27982815     -98.21824901      20.65924305        4        1
S       43.35064593    -100.06516912      17.07030096        5        1
S       43.32767875    -100.05410372      21.75775242        6        1
Ga      41.27625124    -100.15130633      18.16490372        3        1
Ga      41.26558352    -100.14300288      20.64523428        4        1
S       40.32483884    -101.98415979      17.06035689        5        1
S       40.31311734    -101.97772544      21.74707967        6        1
Ga      38.25415197    -102.07157911      18.15773125        3        1
Ga      38.24991587    -102.06940331      20.63797968        4        1
S       37.29910054    -103.90646582      17.05673891        5        1
S       37.29942112    -103.90451816      21.74322080        6        1
Ga      35.23316734    -103.99905078      18.15751220        3        1
Ga      35.23526345    -104.00173138      20.63775186        4        1
S       34.27773395    -105.83814370      17.06033525        5        1
S       34.28888729    -105.83852188      21.74684752        6        1
Ga      32.21755768    -105.93988859      18.16525436        3        1
Ga      32.22387049    -105.94391181      20.64545880        4        1
S       31.26498540    -107.78488927      17.07198936        5        1
S       31.28240707    -107.78320410      21.75813340        6        1
Ga      29.21019887    -107.89809677      18.18014933        3        1
Ga      29.21702261    -107.89784224      20.66013616        4        1
S       28.26292463    -109.74865517      17.08879887        5        1
S       28.27880136    -109.73987905      21.77383979        6        1
Ga      26.21082620    -109.87163383      18.19635468        3        1
Ga      26.21425455    -109.86160296      20.67606572        4        1
S       25.26955717    -111.72573309      17.10318397        5        1
S       25.27603761    -111.70591026      21.78706752        6        1
Ga      23.21604301    -111.85231170      18.20594363        3        1
Ga      23.21354638    -111.82984057      20.68568271        4        1
S       22.27913851    -113.70763685      17.10841728        5        1
S       22.27279970    -113.67513545      21.79212830        6        1
Ga      20.22074180    -113.82892283      18.20565447        3        1
Ga      20.21248358    -113.79624947      20.68588445        4        1
S       19.28451064    -115.68297099      17.10352641        5        1
S       19.26876691    -115.64094370      21.78902878        6        1
Ga      17.22071700    -115.79289074      18.19872606        3        1
Ga      17.20960774    -115.75654713      20.67970052        4        1
S       16.28223493    -117.64409316      17.09346128        5        1
S       16.26434576    -117.59975169      21.78218670        6        1
Ga      14.21551045    -117.74351831      18.19071338        3        1
Ga      14.20519716    -117.71008233      20.67234709        4        1
S       13.27454254    -119.59172994      17.08374451        5        1
S       13.26022876    -119.55181945      21.77591594        6        1
Ga      11.20781085    -119.68489502      18.18486319        3        1
Ga      11.20053115    -119.65825836      20.66695349        4        1
S        7.13777375      -1.47952543      17.07686608        5        1
S        7.12974691      -1.44841170      21.77185581        6        1
Ga       5.07280205      -1.56932923      18.18157023        3        1
Ga       5.06933039      -1.55149193      20.66389903        4        1
S        4.12661804      -3.40998968      17.07305905        5        1
S        4.12607244      -3.39058541      21.76963154        6        1
Ga      38.93407179     -53.60322966      18.18806349        3        1
Ga      38.89850013     -53.59761926      20.67035635        4        1
S       37.98314634     -55.43860586      17.07805799        5        1
S       37.94532747     -55.43557430      21.77339854        6        1
Ga      35.91462248     -55.54801170      18.18464862        3        1
Ga      35.88346083     -55.54772631      20.66701113        4        1
S       34.95733650     -57.37644314      17.07471401        5        1
S       34.92795776     -57.38244846      21.77095374        6        1
Ga      32.88921741     -57.48323440      18.18247752        3        1
Ga      32.86486936     -57.49052200      20.66482587        4        1
S       31.92577031     -59.30534514      17.07398240        5        1
S       31.90741023     -59.32216790      21.76983764        6        1
Ga      29.85789679     -59.40860722      18.18225897        3        1
Ga      29.84260906     -59.42512213      20.66450066        4        1
S       28.88951006     -61.22621869      17.07605876        5        1
S       28.88410960     -61.25437795      21.77084129        6        1
Ga      26.82188324     -61.32721858      18.18462082        3        1
Ga      26.81735505     -61.35324809      20.66674838        4        1
S       25.85035761     -63.14257704      17.08090253        5        1
S       25.85927525     -63.18123450      21.77459859        6        1
Ga      23.78336373     -63.24368668      18.18991617        3        1
Ga      23.79063655     -63.27843564      20.67199425        4        1
S       22.81062826     -65.05938088      17.08899733        5        1
S       22.83510136     -65.10646305      21.78193297        6        1
Ga      20.74528541     -65.16321763      18.19930232        3        1
Ga      20.76463600     -65.20509967      20.68143168        4        1
S       19.77376195     -66.98280043      17.10232915        5        1
S       19.81429960     -67.03456103      21.79466574        6        1
Ga      17.71149248     -67.09177479      18.21520323        3        1
Ga      17.74189811     -67.13800949      20.69739548        4        1
S       16.74478840     -68.91987342      17.12417583        5        1
S       16.79926600     -68.97034913      21.81512542        6        1
Ga      14.68659009     -69.03585690      18.24005342        3        1
Ga      14.72488980     -69.08172272      20.72209342        4        1
S       13.72902770     -70.87633251      17.15640978        5        1
S       13.79094227     -70.91824139      21.84402311        6        1
Ga      11.67412203     -71.00025604      18.27335678        3        1
Ga      11.71504438     -71.03937901      20.75489371        4        1
S       10.72803019     -72.85273927      17.19550591        5        1
S       10.78839572     -72.88078135      21.87864531        6        1
Ga       8.67421113     -72.98416461      18.31018649        3        1
Ga       8.71207996     -73.01124938      20.79112402        4        1
S        7.73824759     -74.84413315      17.23348569        5        1
S        7.78947840     -74.85730430      21.91334335        6        1
Ga       5.68342884     -74.98128060      18.34298067        3        1
Ga       5.71419097     -74.99426445      20.82372765        4        1
S        4.75512998     -76.84437010      17.26238966        5        1
S        4.79194544     -76.84415420      21.94113598        6        1
Ga       2.69739791     -76.98410965      18.36465717        3        1
Ga       2.71903347     -76.98346566      20.84576537        4        1
S       70.09345564     -78.84816510      17.27729643        5        1
S       70.11289126     -78.83615293      21.95630804        6        1
Ga      68.03089708     -78.98690635      18.37164145        3        1
Ga      68.04329501     -78.97417950      20.85309828        4        1
S       67.11390594     -80.85138632      17.27793620        5        1
S       67.11608947     -80.82849604      21.95686808        6        1
Ga      65.04516881     -80.98686775      18.36467835        3        1
Ga      65.05010477     -80.96317597      20.84595658        4        1
S       64.13243945     -82.85070398      17.26618190        5        1
S       64.12061472     -82.81777548      21.94477616        6        1
Ga      62.05781873     -82.98094217      18.34712533        3        1
Ga      62.05777133     -82.94775735      20.82798223        4        1
S       61.14774349     -84.84151024      17.24448598        5        1
S       61.12666949     -84.80137066      21.92400024        6        1
Ga      59.06916582     -84.96425090      18.32293590        3        1
Ga      59.06603044     -84.92480818      20.80365567        4        1
S       58.16003988     -86.81918960      17.21627596        5        1
S       58.13352677     -86.77656826      21.89824217        6        1
Ga      56.07942085     -86.93258182      18.29539025        3        1
Ga      56.07417667     -86.89134944      20.77621729        4        1
S       55.16971805     -88.78110882      17.18476903        5        1
S       55.14012513     -88.74093348      21.86987646        6        1
Ga      53.08836473     -88.88401724      18.26670658        3        1
Ga      53.08133181     -88.84570274      20.74759520        4        1
S       52.17632583     -90.72696925      17.15292267        5        1
S       52.14549418     -90.69321952      21.84050509        6        1
Ga      50.09543607     -90.82014017      18.23867763        3        1
Ga      50.08652975     -90.78821267      20.71945126        4        1
S       49.17895101     -92.65899565      17.12351754        5        1
S       49.14864242     -92.63382308      21.81209839        6        1
Ga      47.09950708     -92.74492455      18.21300348        3        1
Ga      47.08886803     -92.72092056      20.69358511        4        1
S       46.17657106     -94.58102621      17.09868635        5        1
S       46.14872209     -94.56459783      21.78705954        6        1
Ga      44.09927301     -94.66252679      18.19145099        3        1
Ga      44.08777062     -94.64675339      20.67185633        4        1
S       43.16865204     -96.49693124      17.07965535        5        1
S       43.14542922     -96.48853140      21.76732021        6        1
Ga      41.09398279     -96.57671457      18.17519877        3        1
Ga      41.08328986     -96.56906909      20.65548663        4        1
S       40.15575221     -98.41048708      17.06671545        5        1
S       40.13943906     -98.40940190      21.75368109        6        1
Ga      38.08426205     -98.49148745      18.16471751        3        1
Ga      38.07632017     -98.49160737      20.64494557        4        1
S       37.13988392    -100.32602468      17.05971051        5        1
S       37.13242179    -100.33141282      21.74632959        6        1
Ga      35.07245819    -100.41177654      18.16039219        3        1
Ga      35.06851544    -100.41857736      20.64064015        4        1
S       34.12449582    -102.24912167      17.05913674        5        1
S       34.12657173    -102.25897409      21.74581452        6        1
Ga      32.06229423    -102.34358179      18.16338475        3        1
Ga      32.06190857    -102.35427581      20.64367693        4        1
S       31.11389896    -104.18585319      17.06635120        5        1
S       31.12345152    -104.19621667      21.75301160        6        1
Ga      29.05748157    -104.29219922      18.17444358        3        1
Ga      29.05817140    -104.30181317      20.65465120        4        1
S       28.11173643    -106.14015112      17.08086451        5        1
S       28.12275966    -106.14581674      21.76675998        6        1
Ga      26.05952161    -106.25839750      18.19039747        3        1
Ga      26.05765541    -106.26108543      20.67032708        4        1
S       25.11837982    -108.11064394      17.09704579        5        1
S       25.12261902    -108.10705711      21.78164341        6        1
Ga      23.06660811    -108.23627272      18.20345547        3        1
Ga      23.05901661    -108.22796043      20.68323184        4        1
S       22.13006725    -110.09065531      17.10696498        5        1
S       22.12134147    -110.07502149      21.79066996        6        1
Ga      20.07456920    -110.21564784      18.20747496        3        1
Ga      20.05996820    -110.19617074      20.68753160        4        1
S       19.13988583    -112.06972618      17.10646226        5        1
S       19.11815872    -112.04277530      21.79089305        6        1
Ga      17.07845680    -112.18631208      18.20280795        3        1
Ga      17.05844933    -112.16028516      20.68350888        4        1
S       16.14168107    -114.03770623      17.09805977        5        1
S       16.11305702    -114.00508390      21.78507629        6        1
Ga      14.07554122    -114.14415654      18.19456832        3        1
Ga      14.05379605    -114.11816818      20.67597512        4        1
S       13.13482274    -115.99195932      17.08769940        5        1
S       13.10649255    -115.96072999      21.77806784        6        1
Ga      11.06692210    -116.09213278      18.18745930        3        1
Ga      11.04676275    -116.07075664      20.66939479        4        1
S       10.12248241    -117.93609916      17.07937411        5        1
S       10.09894134    -117.91126122      21.77289310        6        1
Ga       8.05518685    -118.03393285      18.18303114        3        1
Ga       8.03842854    -118.01928223      20.66526964        4        1
S        7.10695273    -119.87318233      17.07411402        5        1
S        7.09034584    -119.85778192      21.76993188        6        1
Ga       5.04111646    -119.96958642      18.18065323        3        1
Ga       5.02892571    -119.96313958      20.66303592        4        1
S        0.96108355      -1.75266663      17.07162099        5        1
S        0.95305979      -1.74897995      21.76849385        6        1
Ga      41.80352764     -48.05941203      18.20435212        3        1
Ga      41.75486160     -48.05710742      20.68646852        4        1
S       40.86283525     -49.90101450      17.09347778        5        1
S       40.80545911     -49.90113211      21.78591016        6        1
Ga      38.79323052     -50.01914629      18.19690554        3        1
Ga      38.74451691     -50.01803203      20.67923314        4        1
S       37.84507191     -51.85456142      17.08559552        5        1
S       37.79122836     -51.85803593      21.78030517        6        1
Ga      35.77518852     -51.97274014      18.19168080        3        1
Ga      35.72945804     -51.97429786      20.67403919        4        1
S       34.81936805     -53.80078021      17.08059011        5        1
S       34.77252381     -53.81029653      21.77624981        6        1
Ga      32.74939948     -53.91603213      18.18772804        3        1
Ga      32.70971758     -53.92302794      20.67002417        4        1
S       31.78619734     -55.73720741      17.07827127        5        1
S       31.74974327     -55.75530754      21.77339729        6        1
Ga      29.71620080     -55.84784542      18.18569676        3        1
Ga      29.68534817     -55.86274797      20.66782515        4        1
S       28.74689225     -57.66411971      17.07894581        5        1
S       28.72340586     -57.69206687      21.77258431        6        1
Ga      26.67702856     -57.77127599      18.18642742        3        1
Ga      26.65702987     -57.79476842      20.66833455        4        1
S       25.70344620     -59.58493023      17.08248261        5        1
S       25.69446389     -59.62224267      21.77450894        6        1
Ga      23.63400662     -59.69116670      18.19000047        3        1
Ga      23.62613781     -59.72235882      20.67173640        4        1
S       22.65794355     -61.50446457      17.08873830        5        1
S       22.66466843     -61.54921152      21.77950155        6        1
Ga      20.58957884     -61.61251267      18.19673482        3        1
Ga      20.59457263     -61.64959458      20.67839376        4        1
S       19.61289333     -63.42825845      17.09858265        5        1
S       19.63645301     -63.47702204      21.78856520        6        1
Ga      17.54671963     -63.54029103      18.20802456        3        1
Ga      17.56467100     -63.58080257      20.68971336        4        1
S       16.57220628     -65.36227236      17.11422108        5        1
S       16.61248720     -65.40999570      21.80368258        6        1
Ga      14.50950946     -65.47964525      18.22619680        3        1
Ga      14.53905015     -65.52029106      20.70791670        4        1
S       13.54129448     -67.31217898      17.13834820        5        1
S       13.59484326     -67.35247382      21.82660177        6        1
Ga      11.48260973     -67.43547178      18.25259637        3        1
Ga      11.52003388     -67.47172930      20.73413399        4        1
S       10.52485947     -69.28088761      17.17099394        5        1
S       10.58402818     -69.30799028      21.85650032        6        1
Ga       8.46899797     -69.41034368      18.28495078        3        1
Ga       8.50866501     -69.43695441      20.76603992        4        1
S        7.52290489     -71.26644992      17.20693479        5        1
S        7.57879374     -71.27773716      21.88911659        6        1
Ga       5.46776011     -71.40161139      18.31714416        3        1
Ga       5.50413247     -71.41476484      20.79781178        4        1
S        4.53131522     -73.26364311      17.23818993        5        1
S        4.57698995     -73.25959153      21.91824565        6        1
Ga       2.47476491     -73.40243677      18.34191749        3        1
Ga       2.50440013     -73.40100638      20.82252407        4        1
S       69.86394041     -75.26694664      17.25833374        5        1
S       69.89509150     -75.24895871      21.93757705        6        1
Ga      67.80375740     -75.40568776      18.35372046        3        1
Ga      67.82573063     -75.39054680      20.83453578        4        1
S       66.88105651     -77.27118471      17.26415405        5        1
S       66.89621524     -77.24067709      21.94301205        6        1
Ga      64.81527502     -77.40699621      18.35077472        3        1
Ga      64.83069565     -77.37938951      20.83170967        4        1
S       63.89858771     -79.27265452      17.25599986        5        1
S       63.89952718     -79.23063932      21.93466034        6        1
Ga      61.82678377     -79.40334399      18.33569070        3        1
Ga      61.83753614     -79.36469569      20.81661387        4        1
S       60.91460941     -81.26742113      17.23708457        5        1
S       60.90570033     -81.21578047      21.91662174        6        1
Ga      58.83840240     -81.39015161      18.31380657        3        1
Ga      58.84612723     -81.34346700      20.79479975        4        1
S       57.92801379     -83.24997098      17.21202828        5        1
S       57.91404050     -83.19331163      21.89376703        6        1
Ga      55.84968834     -83.36197877      18.28954355        3        1
Ga      55.85564617     -83.31237505      20.77071151        4        1
S       54.93925299     -85.21585621      17.18469100        5        1
S       54.92328471     -85.16056634      21.86921127        6        1
Ga      52.86036392     -85.31534923      18.26550252        3        1
Ga      52.86506735     -85.26896271      20.74669279        4        1
S       51.94909218     -87.16341859      17.15790913        5        1
S       51.93250795     -87.11579077      21.84459600        6        1
Ga      49.87048243     -87.25108716      18.24330069        3        1
Ga      49.87360311     -87.21284856      20.72421599        4        1
S       48.95764041     -89.09451675      17.13361406        5        1
S       48.94091452     -89.05899379      21.82111624        6        1
Ga      46.87989955     -89.17361445      18.22343888        3        1
Ga      46.88074556     -89.14583992      20.70394582        4        1
S       45.96437100     -91.01362285      17.11243982        5        1
S       45.94769904     -90.99177797      21.79975459        6        1
Ga      43.88799117     -91.08806217      18.20586374        3        1
Ga      43.88613513     -91.07096912      20.68604540        4        1
S       42.96819233     -92.92560224      17.09461557        5        1
S       42.95220415     -92.91666415      21.78141650        6        1
Ga      40.89366468     -92.99871814      18.19080614        3        1
Ga      40.88945906     -92.99166398      20.67083927        4        1
S       39.96819394     -94.83466085      17.08043345        5        1
S       39.95430325     -94.83689361      21.76690356        6        1
Ga      37.89609377     -94.90934799      18.17891151        3        1
Ga      37.89073011     -94.91150735      20.65894809        4        1
S       36.96443222     -96.74487882      17.07044865        5        1
S       36.95472776     -96.75633080      21.75690091        6        1
Ga      34.89559716     -96.82425516      18.17121948        3        1
Ga      34.89060429     -96.83446459      20.65136251        4        1
S       33.95855638     -98.66111196      17.06555544        5        1
S       33.95501471     -98.67937250      21.75238904        6        1
Ga      31.89425905     -98.74878863      18.16940533        3        1
Ga      31.89036616     -98.76484545      20.64973143        4        1
S       30.95392100    -100.58918219      17.06754029        5        1
S       30.95674283    -100.61053840      21.75485368        6        1
Ga      28.89531774    -100.68871156      18.17538917        3        1
Ga      28.89149789    -100.70649233      20.65580931        4        1
S       27.95445686    -102.53417707      17.07769780        5        1
S       27.96026641    -102.55350684      21.76485503        6        1
Ga      25.90116396    -102.64699232      18.18858994        3        1
Ga      25.89476964    -102.66091057      20.66886995        4        1
S       24.96237656    -104.49707583      17.09313802        5        1
S       24.96406041    -104.50936538      21.77915831        6        1
Ga      22.91138952    -104.62034180      18.20298903        3        1
Ga      22.89943713    -104.62557373      20.68302925        4        1
S       21.97612407    -106.47313981      17.10615932        5        1
S       21.96617031    -106.47496738      21.79086018        6        1
Ga      19.92312504    -106.60021047      18.21075611        3        1
Ga      19.90356323    -106.59479128      20.69084631        4        1
S       18.99043021    -108.45371256      17.11018760        5        1
S       18.96550537    -108.44388672      21.79455283        6        1
Ga      16.93192337    -108.57644583      18.20904500        3        1
Ga      16.90494953    -108.56255997      20.68962806        4        1
S       15.99822857    -110.42815301      17.10450429        5        1
S       15.96174524    -110.40982806      21.79050635        6        1
Ga      13.93376675    -110.54211566      18.20125831        3        1
Ga      13.90220447    -110.52533874      20.68253707        4        1
S       12.99568726    -112.39022393      17.09415685        5        1
S       12.95506610    -112.36985568      21.78316002        6        1
Ga      10.92770986    -112.49776370      18.19294530        3        1
Ga      10.89534736    -112.48305616      20.67480089        4        1
S        9.98432345    -114.34157835      17.08452925        5        1
S        9.94577329    -114.32469982      21.77673763        6        1
Ga       7.91562950    -114.44723362      18.18714079        3        1
Ga       7.88526633    -114.43696436      20.66932908        4        1
S        6.96703926    -116.28585444      17.07781463        5        1
S        6.93399237    -116.27585488      21.77263064        6        1
Ga      44.64051572     -42.49297522      18.23407246        3        1
Ga      44.59140361     -42.50103945      20.71568651        4        1
S       43.71312810     -44.33895125      17.12178126        5        1
S       43.65206354     -44.35390411      21.81068580        6        1
Ga      41.64703334     -44.46589054      18.22239265        3        1
Ga      41.59102432     -44.47109233      20.70453984        4        1
S       40.71295925     -46.30752158      17.10884081        5        1
S       40.64569647     -46.31967318      21.80054706        6        1
Ga      38.64367374     -46.43424884      18.21180290        3        1
Ga      38.58446548     -46.43797164      20.69419809        4        1
S       37.70131489     -48.26996378      17.09810667        5        1
S       37.63386321     -48.28179476      21.79216281        6        1
Ga      35.63074972     -48.39666624      18.20357151        3        1
Ga      35.57207788     -48.40032198      20.68596820        4        1
S       34.67935103     -50.22499084      17.09054780        5        1
S       34.61645532     -50.23924022      21.78559989        6        1
Ga      32.60809458     -50.34809786      18.19695373        3        1
Ga      32.55387517     -50.35497004      20.67923600        4        1
S       31.64763736     -52.16922486      17.08604079        5        1
S       31.59384034     -52.18926680      21.78042310        6        1
Ga      29.57599638     -52.28641231      18.19253039        3        1
Ga      29.52985485     -52.29986046      20.67455790        4        1
S       28.60770935     -54.10230835      17.08488524        5        1
S       28.56655982     -54.13036297      21.77744318        6        1
Ga      26.53606641     -54.21472603      18.19129192        3        1
Ga      26.50061566     -54.23598415      20.67297694        4        1
S       25.56198056     -56.02781661      17.08696324        5        1
S       25.53540131     -56.06387647      21.77744761        6        1
Ga      23.49065368     -56.13836180      18.19316209        3        1
Ga      23.46745755     -56.16646343      20.67452648        4        1
S       22.51272110     -57.95086590      17.09165466        5        1
S       22.50180691     -57.99298276      21.78041586        6        1
Ga      20.44212996     -58.06241460      18.19770137        3        1
Ga      20.43214682     -58.09518625      20.67884165        4        1
S       19.46209389     -59.87661624      17.09885204        5        1
S       19.46788624     -59.92144908      21.78644843        6        1
Ga      17.39293877     -59.99124017      18.20519429        3        1
Ga      17.39680128     -60.02608456      20.68623190        4        1
S       16.41303676     -61.81008506      17.10946893        5        1
S       16.43624972     -61.85310558      21.79659135        6        1
Ga      14.34637420     -61.92877898      18.21701558        3        1
Ga      14.36394796     -61.96301425      20.69808606        4        1
S       13.37008305     -63.75592038      17.12551385        5        1
S       13.40958888     -63.79180102      21.81264488        6        1
Ga      11.30699530     -63.87886037      18.23514793        3        1
Ga      11.33627616     -63.90957551      20.71629804        4        1
S       10.33880014     -65.71751389      17.14893912        5        1
S       10.38978603     -65.74121945      21.83560119        6        1
Ga       8.27942355     -65.84503859      18.26008275        3        1
Ga       8.31596144     -65.86845764      20.74114824        4        1
S        7.32275105     -67.69553083      17.17854419        5        1
S        7.37696454     -67.70391034      21.86346909        6        1
Ga       5.26563766     -67.82831718      18.28835650        3        1
Ga       5.30358453     -67.84016771      20.76916934        4        1
S        4.32047814     -69.68720460      17.20838526        5        1
S        4.36960552     -69.67967059      21.89111855        6        1
Ga       2.26336878     -69.82461380      18.31331155        3        1
Ga       2.29792083     -69.82202335      20.79394008        4        1
S       69.64562289     -71.68761239      17.23098600        5        1
S       69.68396473     -71.66499039      21.91225498        6        1
Ga      67.58620395     -71.82632085      18.32826944        3        1
Ga      67.61520747     -71.80900425      20.80895971        4        1
S       66.65744735     -73.69093917      17.24125506        5        1
S       66.68251598     -73.65462465      21.92159262        6        1
Ga      64.59355968     -73.82729387      18.32955633        3        1
Ga      64.61746811     -73.79636477      20.81043246        4        1
S       63.67162176     -75.69258416      17.23740344        5        1
S       63.68406041     -75.64389693      21.91729187        6        1
Ga      61.60225152     -75.82368796      18.31793756        3        1
Ga      61.62265651     -75.78077209      20.79901751        4        1
S       60.68667749     -77.68896563      17.22153259        5        1
S       60.68966479     -77.62928342      21.90220666        6        1
Ga      58.61304504     -77.81159502      18.29845056        3        1
Ga      58.63090217     -77.75955544      20.77977002        4        1
S       57.70102363     -79.67492758      17.19896636        5        1
S       57.69894852     -79.60780905      21.88183219        6        1
Ga      55.62567855     -79.78588759      18.27669429        3        1
Ga      55.64147943     -79.72968533      20.75828530        4        1
S       54.71325720     -81.64455875      17.17491244        5        1
S       54.71009586     -81.57666974      21.86040938        6        1
Ga      52.63815745     -81.74158535      18.25612582        3        1
Ga      52.65270372     -81.68812804      20.73781894        4        1
S       51.72353648     -83.59442901      17.15310413        5        1
S       51.72155972     -83.53367744      21.84010642        6        1
Ga      49.64926464     -83.67792922      18.23889958        3        1
Ga      49.66310184     -83.63352960      20.72027330        4        1
S       48.73324627     -85.52569933      17.13521383        5        1
S       48.73247721     -85.47838694      21.82217899        6        1
Ga      46.65946392     -85.59912763      18.22539740        3        1
Ga      46.67224420     -85.56713896      20.70616280        4        1
S       45.74329186     -87.44312058      17.12061334        5        1
S       45.74244348     -87.41234626      21.80685330        6        1
Ga      43.66982033     -87.51105001      18.21435300        3        1
Ga      43.68041196     -87.49196816      20.69454582        4        1
S       42.75343604     -89.35226782      17.10798612        5        1
S       42.75128099     -89.33815908      21.79355964        6        1
Ga      40.68048699     -89.41864317      18.20444745        3        1
Ga      40.68784950     -89.41157438      20.68429453        4        1
S       39.76252658     -91.25782730      17.09662997        5        1
S       39.75890394     -91.25880663      21.78193581        6        1
Ga      37.69074004     -91.32589550      18.19529332        3        1
Ga      37.69456611     -91.32952893      20.67504413        4        1
S       36.76952183     -93.16385208      17.08679523        5        1
S       36.76551739     -93.17760162      21.77233056        6        1
Ga      34.69985817     -93.23666025      18.18759071        3        1
Ga      34.70068287     -93.24956549      20.66746331        4        1
S       33.77431717     -95.07465621      17.07954605        5        1
S       33.77190047     -95.09838923      21.76587867        6        1
Ga      31.70821135     -95.15556045      18.18314015        3        1
Ga      31.70671819     -95.17578033      20.66330898        4        1
S       30.77846523     -96.99551171      17.07706353        5        1
S       30.77915914     -97.02550497      21.76453392        6        1
Ga      28.71753023     -97.08815766      18.18463395        3        1
Ga      28.71352207     -97.11232444      20.66512068        4        1
S       27.78499248     -98.93196993      17.08196832        5        1
S       27.78780961     -98.96315639      21.77019068        6        1
Ga      25.72991278     -99.03875953      18.19368856        3        1
Ga      25.72176000     -99.06189140      20.67427472        4        1
S       24.79667651    -100.88687287      17.09424716        5        1
S       24.79668831    -100.91382243      21.78201872        6        1
Ga      22.74558738    -101.00662933      18.20715273        3        1
Ga      22.73099008    -101.02369795      20.68758255        4        1
S       21.81362797    -102.85754408      17.10809829        5        1
S       21.80355247    -102.87632514      21.79455183        6        1
Ga      19.76243142    -102.98499220      18.21724595        3        1
Ga      19.73947926    -102.99305178      20.69759202        4        1
S       18.83246580    -104.83706855      17.11571722        5        1
S       18.80692306    -104.84542275      21.80108481        6        1
Ga      16.77698808    -104.96466941      18.21853478        3        1
Ga      16.74506567    -104.96387404      20.69917902        4        1
S       15.84710189    -106.81603739      17.11336501        5        1
S       15.80627311    -106.81455441      21.79921096        6        1
Ga      13.78524476    -106.93766668      18.21180907        3        1
Ga      13.74602309    -106.93159205      20.69307376        4        1
S       12.85165002    -108.78605511      17.10371397        5        1
S       12.80158339    -108.77929947      21.79192659        6        1
Ga      10.78469822    -108.90162269      18.20232764        3        1
Ga      10.74168448    -108.89487832      20.68420412        4        1
S        9.84491018    -110.74567925      17.09280396        5        1
S        9.79297939    -110.73904559      21.78410480        6        1
Ga      47.43204744     -36.90868606      18.26656555        3        1
Ga      47.39745922     -36.93130365      20.74753521        4        1
S       46.51374341     -38.75681340      17.15629166        5        1
S       46.47312130     -38.79222009      21.84281954        6        1
Ga      44.45602287     -38.89225867      18.26132216        3        1
Ga      44.40890065     -38.90896737      20.74270456        4        1
S       43.53522327     -40.73791744      17.14748667        5        1
S       43.47693964     -40.76729068      21.83501330        6        1
Ga      41.47144589     -40.87232813      18.24918251        3        1
Ga      41.41424055     -40.88447923      20.73110134        4        1
S       40.54538955     -42.71417954      17.13311288        5        1
S       40.47531128     -42.73884968      21.82307277        6        1
Ga      38.47714710     -42.84870261      18.23532346        3        1
Ga      38.41314913     -42.85707137      20.71759882        4        1
S       37.54341340     -44.68528704      17.11870295        5        1
S       37.46792946     -44.70647788      21.81121979        6        1
Ga      35.47274146     -44.81964869      18.22283825        3        1
Ga      35.40573157     -44.82533403      20.70522962        4        1
S       34.52944609     -46.64929992      17.10705279        5        1
S       34.45435213     -46.66916780      21.80092315        6        1
Ga      32.45733277     -46.77956609      18.21208538        3        1
Ga      32.39179534     -46.78598340      20.69439288        4        1
S       31.50326809     -48.60185099      17.09881801        5        1
S       31.43454603     -48.62416883      21.79224591        6        1
Ga      29.43030360     -48.72506506      18.20390951        3        1
Ga      29.37093995     -48.73641939      20.68590073        4        1
S       28.46601469     -50.54170796      17.09461842        5        1
S       28.40879554     -50.56960650      21.78613639        6        1
Ga      26.39281253     -50.65891954      18.19962039        3        1
Ga      26.34338613     -50.67711264      20.68112736        4        1
S       25.42047270     -52.47254112      17.09434985        5        1
S       25.37766702     -52.50653294      21.78351420        6        1
Ga      23.34748028     -52.58690152      18.19901686        3        1
Ga      23.31027767     -52.61101404      20.68005446        4        1
S       22.36951318     -54.39984606      17.09698992        5        1
S       22.34238522     -54.43802270      21.78410012        6        1
Ga      20.29698926     -54.51430436      18.20101022        3        1
Ga      20.27335719     -54.54191089      20.68167815        4        1
S       19.31554414     -56.32868360      17.10153119        5        1
S       19.30489681     -56.36768981      21.78720515        6        1
Ga      17.24390413     -56.44510384      18.20489868        3        1
Ga      17.23469962     -56.47345839      20.68534464        4        1
S       16.26117322     -58.26323372      17.10776333        5        1
S       16.26771944     -58.29900244      21.79286675        6        1
Ga      14.19115246     -58.38228540      18.21102817        3        1
Ga      14.19674535     -58.40902964      20.69144917        4        1
S       13.21010669     -60.20686980      17.11668371        5        1
S       13.23379363     -60.23527972      21.80222253        6        1
Ga      11.14285671     -60.32856517      18.22106121        3        1
Ga      11.16228596     -60.35189308      20.70164822        4        1
S       10.16743241     -62.16241199      17.13053309        5        1
S       10.20587568     -62.17984755      21.81707356        6        1
Ga       8.10391074     -62.28726546      18.23708202        3        1
Ga       8.13406071     -62.30502971      20.71787632        4        1
S        7.13820756     -64.13196481      17.15106709        5        1
S        7.18545199     -64.13578576      21.83788935        6        1
Ga       5.07807039     -64.26148776      18.25879685        3        1
Ga       5.11387891     -64.27020370      20.73965219        4        1
S        4.12417328     -66.11579634      17.17597409        5        1
S        4.17204181     -66.10457984      21.86173736        6        1
Ga       2.06554716     -66.25072184      18.28148682        3        1
Ga       2.10172090     -66.24642830      20.76230027        4        1
S       69.44069595     -68.11085523      17.19846206        5        1
S       69.48208935     -68.08445818      21.88275380        6        1
Ga      67.38109774     -68.24876885      18.29797582        3        1
Ga      67.41424796     -68.22953272      20.77886682        4        1
S       66.44640092     -70.11137517      17.21178479        5        1
S       66.47758957     -70.07063552      21.89487378        6        1
Ga      64.38355804     -70.24812673      18.30304824        3        1
Ga      64.41309792     -70.21431532      20.78418658        4        1
S       63.45587991     -72.11174537      17.21244777        5        1
S       63.47675046     -72.05788799      21.89475564        6        1
Ga      61.38835434     -72.24321251      18.29584449        3        1
Ga      61.41568790     -72.19667270      20.77728292        4        1
S       60.46754259     -74.10765041      17.20074535        5        1
S       60.48069071     -74.04219715      21.88357369        6        1
Ga      58.39613861     -74.22978517      18.28007093        3        1
Ga      58.42224702     -74.17387494      20.76178414        4        1
S       57.48103539     -76.09440946      17.18114859        5        1
S       57.48977447     -76.02053141      21.86612138        6        1
Ga      55.40845380     -76.20413993      18.26119856        3        1
Ga      55.43275019     -76.14365799      20.74314894        4        1
S       54.49468450     -78.06640891      17.15957804        5        1
S       54.50225352     -77.99014833      21.84724642        6        1
Ga      52.42335996     -78.16185873      18.24309999        3        1
Ga      52.44550352     -78.10332230      20.72523315        4        1
S       51.50591988     -80.01895365      17.14089537        5        1
S       51.51551066     -79.94849025      21.82986635        6        1
Ga      49.43650865     -80.10034213      18.22864031        3        1
Ga      49.45776562     -80.05061179      20.71058758        4        1
S       48.51465381     -81.95174392      17.12767701        5        1
S       48.52775260     -81.89436284      21.81583117        6        1
Ga      46.44627710     -82.02206713      18.21916335        3        1
Ga      46.46800188     -81.98561682      20.70050779        4        1
S       45.52313569     -83.86913778      17.11920522        5        1
S       45.53851742     -83.82895955      21.80563544        6        1
Ga      43.45468632     -83.93277515      18.21355374        3        1
Ga      43.47657521     -83.91085846      20.69417242        4        1
S       42.53329009     -85.77697589      17.11314093        5        1
S       42.54830412     -85.75506916      21.79815086        6        1
Ga      40.46423267     -85.83802182      18.20969514        3        1
Ga      40.48460330     -85.82993995      20.68972829        4        1
S       39.54535229     -87.68033790      17.10760266        5        1
S       39.55781722     -87.67587564      21.79192098        6        1
Ga      37.47593780     -87.74229749      18.20609786        3        1
Ga      37.49293379     -87.74655786      20.68580450        4        1
S       36.55841314     -89.58335251      17.10187077        5        1
S       36.56756521     -89.59454503      21.78625614        6        1
Ga      34.48951697     -89.64949015      18.20244038        3        1
Ga      34.50197537     -89.66438459      20.68209198        4        1
S       33.57137497     -91.49000138      17.09641429        5        1
S       33.57804294     -91.51446654      21.78161541        6        1
Ga      31.50449904     -91.56383513      18.19967269        3        1
Ga      31.51200277     -91.58734870      20.67956024        4        1
S       30.58414389     -93.40510648      17.09294294        5        1
S       30.58984155     -93.43946200      21.77962636        6        1
Ga      28.52126585     -93.49043442      18.20007473        3        1
Ga      28.52334804     -93.51961569      20.68039080        4        1
S       27.59818185     -95.33417451      17.09439193        5        1
S       27.60330460     -95.37362218      21.78268715        6        1
Ga      25.54092710     -95.43419260      18.20631251        3        1
Ga      25.53630700     -95.46461902      20.68699942        4        1
S       24.61577051     -97.28137554      17.10289440        5        1
S       24.61748450     -97.32018820      21.79185330        6        1
Ga      22.56368875     -97.39643249      18.21801824        3        1
Ga      22.55045762     -97.42313973      20.69876374        4        1
S       21.63768696     -99.24607922      17.11573371        5        1
S       21.62995313     -99.27962305      21.80391909        6        1
Ga      19.58741303     -99.37224607      18.22923819        3        1
Ga      19.56408268     -99.39186519      20.70990254        4        1
S       18.66171638    -101.22267178      17.12543978        5        1
S       18.63857737    -101.24826726      21.81236573        6        1
Ga      16.60885849    -101.35336766      18.23315652        3        1
Ga      16.57485257    -101.36496987      20.71397587        4        1
S       15.68330502    -103.20346896      17.12631139        5        1
S       15.64247958    -103.21994935      21.81275995        6        1
Ga      13.62460935    -103.33210087      18.22807436        3        1
Ga      13.58081728    -103.33724733      20.70939818        4        1
S       12.69655420    -105.18010500      17.11810568        5        1
S       12.64151732    -105.18937476      21.80600137        6        1
Ga      50.18464903     -31.32134197      18.28188691        3        1
Ga      50.17594950     -31.35684164      20.76276975        4        1
S       49.27207271     -33.17295435      17.17834652        5        1
S       49.26488851     -33.22039412      21.86451650        6        1
Ga      47.21945827     -33.30638438      18.29274534        3        1
Ga      47.19552650     -33.33527822      20.77352123        4        1
S       46.30632117     -35.15567535      17.18469871        5        1
S       46.27867147     -35.19951861      21.86958213        6        1
Ga      44.24972405     -35.29372022      18.29271076        3        1
Ga      44.21145701     -35.31658067      20.77366352        4        1
S       43.33485124     -37.14031358      17.18017114        5        1
S       43.28737901     -37.17959044      21.86496603        6        1
Ga      41.27272834     -37.27950680      18.28299593        3        1
Ga      41.22212966     -37.29698101      20.76435941        4        1
S       40.35435895     -39.12277503      17.16682708        5        1
S       40.29090120     -39.15713057      21.85322701        6        1
Ga      38.28728731     -39.26259168      18.26779390        3        1
Ga      38.22693440     -39.27483809      20.74960068        4        1
S       37.36313828     -41.10146022      17.14979340        5        1
S       37.28903458     -41.13069203      21.83869322        6        1
Ga      35.29278015     -41.24115138      18.25138118        3        1
Ga      35.22570736     -41.24864403      20.73350754        4        1
S       34.36041933     -43.07402279      17.13317174        5        1
S       34.28111394     -43.09903409      21.82426224        6        1
Ga      32.28794323     -43.20974100      18.23554509        3        1
Ga      32.21807765     -43.21532664      20.71781699        4        1
S       31.34446291     -45.03534303      17.11921222        5        1
S       31.26651418     -45.05947953      21.81092526        6        1
Ga      29.27056767     -45.16366423      18.22187548        3        1
Ga      29.20310621     -45.17187717      20.70392459        4        1
S       28.31450082     -46.98300763      17.10970457        5        1
S       28.24492698     -47.00975567      21.80012186        6        1
Ga      26.24001046     -47.10442657      18.21253229        3        1
Ga      26.18017660     -47.11795829      20.69401429        4        1
S       25.27284083     -48.92015835      17.10519453        5        1
S       25.21643419     -48.95048248      21.79332410        6        1
Ga      23.19831546     -49.03766729      18.20773876        3        1
Ga      23.14990978     -49.05602012      20.68858379        4        1
S       22.22303281     -50.85244468      17.10436748        5        1
S       22.18197860     -50.88463973      21.79030189        6        1
Ga      20.14874279     -50.96894086      18.20596787        3        1
Ga      20.11395719     -50.98970311      20.68628870        4        1
S       19.16828255     -52.78493096      17.10537907        5        1
S       19.14344136     -52.81581499      21.78978744        6        1
Ga      17.09445741     -52.90199179      18.20568751        3        1
Ga      17.07447693     -52.92248214      20.68569713        4        1
S       16.11149329     -54.72109849      17.10712224        5        1
S       16.10337795     -54.74726884      21.79096780        6        1
Ga      14.03869976     -54.83911578      18.20643571        3        1
Ga      14.03399296     -54.85738637      20.68637279        4        1
S       13.05608251     -56.66322736      17.10978909        5        1
S       13.06481980     -56.68190846      21.79418284        6        1
Ga      10.98528609     -56.78230159      18.20924669        3        1
Ga      10.99531335     -56.79729052      20.68936195        4        1
S       10.00633731     -58.61340777      17.11523204        5        1
S       10.03095828     -58.62262106      21.80110488        6        1
Ga       7.93877678     -58.73438621      18.21655799        3        1
Ga       7.96139924     -58.74518529      20.69701534        4        1
S        6.96723048     -60.57434534      17.12632792        5        1
S        7.00425728     -60.57243928      21.81374674        6        1
Ga       4.90359042     -60.69931790      18.23036713        3        1
Ga       4.93479521     -60.70362475      20.71112464        4        1
S        3.94245599     -62.54855809      17.14401916        5        1
S        3.98540750     -62.53386966      21.83187186        6        1
Ga       1.88186135     -62.67943810      18.24895545        3        1
Ga       1.91666582     -62.67319998      20.72984455        4        1
S       69.25007212     -64.53573676      17.16413789        5        1
S       69.29138901     -64.50703044      21.85122413        6        1
Ga      67.19025935     -64.67145382      18.26592896        3        1
Ga      67.22449476     -64.65117801      20.74692827        4        1
S       66.24958804     -66.53130039      17.17926007        5        1
S       66.28385631     -66.48843414      21.86524950        6        1
Ga      64.18797210     -66.66788473      18.27439942        3        1
Ga      64.21983273     -66.63253947      20.75567104        4        1
S       63.25459202     -68.52922263      17.18401847        5        1
S       63.28032540     -68.47262164      21.86911657        6        1
Ga      61.18915173     -68.66137330      18.27172147        3        1
Ga      61.21943075     -68.61238822      20.75338171        4        1
S       60.26213510     -70.52383303      17.17709382        5        1
S       60.28157861     -70.45480741      21.86244121        6        1
Ga      58.19291115     -70.64588732      18.26041246        3        1
Ga      58.22311608     -70.58728890      20.74241340        4        1
S       57.27210974     -72.50948148      17.16159526        5        1
S       57.28863164     -72.43172360      21.84894953        6        1
Ga      55.20172534     -72.61806240      18.24548678        3        1
Ga      55.23150440     -72.55532085      20.72767851        4        1
S       54.28504570     -74.48148214      17.14312717        5        1
S       54.30077158     -74.40107123      21.83321572        6        1
Ga      52.21647753     -74.57587989      18.23049049        3        1
Ga      52.24406603     -74.51492840      20.71282510        4        1
S       51.29811689     -76.43598607      17.12664394        5        1
S       51.31518925     -76.36052324      21.81824317        6        1
Ga      49.23245689     -76.51701482      18.21776204        3        1
Ga      49.25791293     -76.46400246      20.70006530        4        1
S       48.30756697     -78.37144298      17.11548123        5        1
S       48.32871575     -78.30803495      21.80620903        6        1
Ga      46.24393341     -78.44152023      18.20952689        3        1
Ga      46.26971224     -78.40134637      20.69145324        4        1
S       45.31365369     -80.29066807      17.11008290        5        1
S       45.33974078     -80.24373889      21.79856189        6        1
Ga      43.25047414     -80.35329903      18.20615353        3        1
Ga      43.27846263     -80.32819540      20.68743711        4        1
S       42.31947282     -82.19895557      17.10857614        5        1
S       42.34869322     -82.17014215      21.79480165        6        1
Ga      40.25563729     -82.25772558      18.20599020        3        1
Ga      40.28535549     -82.24770398      20.68662578        4        1
S       39.32790441     -84.10157865      17.10864180        5        1
S       39.35708974     -84.09068630      21.79328705        6        1
Ga      37.26298810     -84.15972809      18.20725207        3        1
Ga      37.29221832     -84.16363278      20.68736632        4        1
S       36.34010567     -86.00284613      17.10871197        5        1
S       36.36639660     -86.00880072      21.79267227        6        1
Ga      34.27436123     -86.06365134      18.20891385        3        1
Ga      34.30047127     -86.07978744      20.68874093        4        1
S       33.35567842     -87.90667168      17.10831111        5        1
S       33.37760308     -87.92784893      21.79257735        6        1
Ga      31.29017397     -87.97390171      18.21097248        3        1
Ga      31.31091488     -88.00009636      20.69080764        4        1
S       30.37361668     -89.81750842      17.10819254        5        1
S       30.39128321     -89.85140932      21.79370141        6        1
Ga      28.31021556     -89.89542975      18.21460497        3        1
Ga      28.32388353     -89.92874039      20.69476903        4        1
S       27.39365967     -91.74064837      17.11047003        5        1
S       27.40759767     -91.78333167      21.79785698        6        1
Ga      25.33459291     -91.83327252      18.22197453        3        1
Ga      25.33942588     -91.86957128      20.70259818        4        1
S       24.41688198     -93.68106053      17.11783413        5        1
S       24.42568899     -93.72707052      21.80670497        6        1
Ga      22.36310380     -93.79015323      18.23395075        3        1
Ga      22.35707512     -93.82454775      20.71482168        4        1
S       21.44419471     -95.63997857      17.13002436        5        1
S       21.44321930     -95.68410327      21.81892228        6        1
Ga      19.39369420     -95.76314051      18.24679112        3        1
Ga      19.37522292     -95.79191546      20.72763919        4        1
S       18.47392150     -97.61313161      17.14136736        5        1
S       18.45739977     -97.65225456      21.82921056        6        1
Ga      16.42262784     -97.74469993      18.25373613        3        1
Ga      16.39125358     -97.76651917      20.73463375        4        1
S       15.50217566     -99.59369721      17.14531196        5        1
S       15.46668147     -99.62610693      21.83221721        6        1
Ga      52.92516431     -25.74737219      18.26778814        3        1
Ga      52.94518896     -25.79428812      20.74918497        4        1
S       52.01047125     -27.60163583      17.17457573        5        1
S       52.03681838     -27.65193493      21.86118512        6        1
Ga      49.95812567     -27.72160321      18.29410602        3        1
Ga      49.96384892     -27.76185612      20.77516536        4        1
S       49.04625191     -29.57546935      17.19708005        5        1
S       49.05560000     -29.62389616      21.88201788        6        1
Ga      46.99289800     -29.70736095      18.31380243        3        1
Ga      46.98345596     -29.74019327      20.79450686        4        1
S       46.08257764     -31.55906857      17.21134593        5        1
S       46.07172344     -31.60500544      21.89440577        6        1
Ga      44.02571598     -31.69763446      18.32195008        3        1
Ga      44.00139256     -31.72388847      20.80259236        4        1
S       43.11520790     -33.54660245      17.21386853        5        1
S       43.08393419     -33.58941334      21.89583195        6        1
Ga      41.05336311     -33.68790017      18.31818458        3        1
Ga      41.01566105     -33.70830276      20.79902868        4        1
S       40.14095088     -35.53401025      17.20513362        5        1
S       40.09178150     -35.57265768      21.88745056        6        1
Ga      38.07429170     -35.67625174      18.30536004        3        1
Ga      38.02530845     -35.69079202      20.78652791        4        1
S       37.15820062     -37.51908127      17.18884627        5        1
S       37.09513235     -37.55231416      21.87281489        6        1
Ga      35.08802458     -37.66100860      18.28768488        3        1
Ga      35.02993807     -37.66961678      20.76923137        4        1
S       34.16622393     -39.49920405      17.16923348        5        1
S       34.09332147     -39.52674007      21.85563551        6        1
Ga      32.09361335     -39.63760770      18.26797267        3        1
Ga      32.02910311     -39.64212012      20.74991031        4        1
S       31.16290155     -41.46927771      17.14929930        5        1
S       31.08529094     -41.49341278      21.83781722        6        1
Ga      29.08853682     -41.60096353      18.24824309        3        1
Ga      29.02163802     -41.60518501      20.73028401        4        1
S       28.14503554     -43.42581947      17.13226517        5        1
S       28.07005750     -43.44962785      21.82116307        6        1
Ga      26.06966273     -43.55036208      18.23169492        3        1
Ga      26.00600372     -43.55755399      20.71330208        4        1
S       25.11237346     -45.37054012      17.12066943        5        1
S       25.04695000     -45.39512975      21.80810655        6        1
Ga      23.03661833     -45.49013553      18.22016145        3        1
Ga      22.98167699     -45.50073529      20.70102871        4        1
S       22.06811200     -47.30854726      17.11392711        5        1
S       22.01628538     -47.33255373      21.79942597        6        1
Ga      19.99229559     -47.42571175      18.21256048        3        1
Ga      19.94979296     -47.43787547      20.69277457        4        1
S       19.01624333     -49.24466415      17.10979999        5        1
S       18.97973258     -49.26553478      21.79384679        6        1
Ga      16.94059304     -49.36082013      18.20694647        3        1
Ga      16.91248610     -49.37228275      20.68675853        4        1
S       15.96043780     -51.18206175      17.10646413        5        1
S       15.93987712     -51.19732130      21.78995472        6        1
Ga      13.88540604     -51.29757381      18.20222433        3        1
Ga      13.87238930     -51.30682399      20.68192588        4        1
S       12.90422927     -53.12243393      17.10348375        5        1
S       12.89983273     -53.13062717      21.78741598        6        1
Ga      10.83063138     -53.23758078      18.19882951        3        1
Ga      10.83240826     -53.24413504      20.67869600        4        1
S        9.85142906     -55.06741850      17.10211424        5        1
S        9.86294471     -55.06800461      21.78741341        6        1
Ga       7.78049472     -55.18331699      18.19883815        3        1
Ga       7.79559788     -55.18706894      20.67905330        4        1
S        6.80642427     -57.01979763      17.10517243        5        1
S        6.83224588     -57.01227688      21.79229318        6        1
Ga       4.73948407     -57.13887813      18.20512089        3        1
Ga       4.76484808     -57.13863223      20.68571767        4        1
S        3.77361083     -58.98339563      17.11533025        5        1
S        3.80944141     -58.96634894      21.80381624        6        1
Ga       1.71101408     -59.10838140      18.21864446        3        1
Ga       1.74219123     -59.10071296      20.69945793        4        1
S       69.07336292     -60.96040157      17.13166782        5        1
S       69.11233452     -60.93184225      21.82020823        6        1
Ga      67.01362861     -61.09181488      18.23529510        3        1
Ga      67.04610206     -61.07235659      20.71615144        4        1
S       66.06725466     -62.94855475      17.14782288        5        1
S       66.10247097     -62.90715477      21.83550407        6        1
Ga      64.00758059     -63.08348922      18.24722618        3        1
Ga      64.03846691     -63.04945676      20.72823324        4        1
S       63.06889374     -64.94234883      17.15646335        5        1
S       63.09662485     -64.88743052      21.84323522        6        1
Ga      61.00646877     -65.07518455      18.24920334        3        1
Ga      61.03547751     -65.02671405      20.73057478        4        1
S       60.07370790     -66.93526670      17.15425810        5        1
S       60.09489619     -66.86707654      21.84106094        6        1
Ga      58.00736603     -67.05869318      18.24207540        3        1
Ga      58.03612929     -66.99962879      20.72390026        4        1
S       57.07977187     -68.91984692      17.14303205        5        1
S       57.09843184     -68.84194575      21.83169456        6        1
Ga      55.01134364     -69.02890370      18.23073906        3        1
Ga      55.04092092     -68.96571726      20.71291328        4        1
S       54.08855641     -70.89075442      17.12811848        5        1
S       54.10769998     -70.80988586      21.81963554        6        1
Ga      52.02143561     -70.98522825      18.21927351        3        1
Ga      52.05054893     -70.92418757      20.70160636        4        1
S       51.10053217     -72.84590256      17.11414365        5        1
S       51.12111809     -72.76957225      21.80769548        6        1
Ga      49.03667017     -72.92784639      18.20898759        3        1
Ga      49.06373057     -72.87416940      20.69137585        4        1
S       48.11154769     -74.78430666      17.10399068        5        1
S       48.13526381     -74.71909203      21.79736686        6        1
Ga      46.05061529     -74.85617654      18.20126006        3        1
Ga      46.07677042     -74.81420104      20.68350702        4        1
S       45.11777738     -76.70698679      17.09897761        5        1
S       45.14693133     -76.65716762      21.79037150        6        1
Ga      43.05822000     -76.77143631      18.19759734        3        1
Ga      43.08651370     -76.74393695      20.67944503        4        1
S       42.12007217     -78.61762279      17.09857371        5        1
S       42.15519330     -78.58500759      21.78752447        6        1
Ga      40.06051500     -78.67742761      18.19790961        3        1
Ga      40.09268225     -78.66526910      20.67924221        4        1
S       39.12204786     -80.52103491      17.10119491        5        1
S       39.16140923     -80.50578274      21.78802658        6        1
Ga      37.06174692     -80.57881600      18.20103575        3        1
Ga      37.09711043     -80.58158286      20.68185271        4        1
S       36.12729005     -82.42169009      17.10536141        5        1
S       36.16783144     -82.42319682      21.79065949        6        1
Ga      34.06605456     -82.48025356      18.20602548        3        1
Ga      34.10213743     -82.49675134      20.68642962        4        1
S       33.13806036     -84.32374078      17.11017089        5        1
S       33.17646629     -84.34090363      21.79474426        6        1
Ga      31.07616111     -84.38660775      18.21253589        3        1
Ga      31.10963283     -84.41487828      20.69273848        4        1
S       30.15481431     -86.23157674      17.11547574        5        1
S       30.18859352     -86.26263008      21.80039960        6        1
Ga      28.09329184     -86.30331975      18.22105821        3        1
Ga      28.12066647     -86.34031356      20.70137466        4        1
S       27.17667462     -88.15035844      17.12227142        5        1
S       27.20462548     -88.19229491      21.80858453        6        1
Ga      25.11741676     -88.23590224      18.23282689        3        1
Ga      25.13550557     -88.27725676      20.71350532        4        1
S       24.20290963     -90.08532819      17.13256391        5        1
S       24.22385581     -90.13355114      21.82049669        6        1
Ga      22.14764755     -90.18790006      18.24856885        3        1
Ga      22.15373125     -90.22853670      20.72952351        4        1
S       21.23355721     -92.03917361      17.14701843        5        1
S       21.24414926     -92.08856589      21.83542945        6        1
Ga      19.18183863     -92.15796583      18.26553952        3        1
Ga      19.17395138     -92.19377138      20.74646394        4        1
S       18.26758202     -94.00926266      17.16167355        5        1
S       18.26255787     -94.05627811      21.84912590        6        1
Ga      55.68717796     -20.20425781      18.23338153        3        1
Ga      55.72631909     -20.25817518      20.71521700        4        1
S       54.75595619     -22.05377506      17.14517312        5        1
S       54.80852214     -22.10524808      21.83282785        6        1
Ga      52.70425617     -22.15405429      18.26205114        3        1
Ga      52.73562108     -22.20646841      20.74384915        4        1
S       51.78210726     -24.00858255      17.17539113        5        1
S       51.82402781     -24.05899955      21.86133565        6        1
Ga      49.73025497     -24.12553098      18.29490935        3        1
Ga      49.74965088     -24.17033059      20.77627204        4        1
S       48.81441197     -25.98130762      17.20598142        5        1
S       48.84082113     -26.02821232      21.88983778        6        1
Ga      46.76086347     -26.11134789      18.32408559        3        1
Ga      46.76644573     -26.14695541      20.80492283        4        1
S       45.84914558     -27.96556614      17.22959175        5        1
S       45.85662248     -28.00925924      21.91141120        6        1
Ga      43.79211412     -28.10379565      18.34244522        3        1
Ga      43.78354875     -28.13139089      20.82311365        4        1
S       42.88276109     -29.95564434      17.24129650        5        1
S       42.87001844     -29.99642082      21.92160252        6        1
Ga      40.82079866     -30.09754350      18.34757416        3        1
Ga      40.79885547     -30.11856026      20.82835080        4        1
S       39.91169983     -31.94720916      17.24025199        5        1
S       39.88031499     -31.98437068      21.91991374        6        1
Ga      37.84477471     -32.09013152      18.34096759        3        1
Ga      37.81116171     -32.10485088      20.82186376        4        1
S       36.93410893     -33.93767628      17.22855480        5        1
S       36.88731721     -33.96966529      21.90872733        6        1
Ga      34.86346471     -34.07989965      18.32595107        3        1
Ga      34.81995695     -34.08804548      20.80695573        4        1
S       33.94945967     -35.92435670      17.20977135        5        1
S       33.89052556     -35.95012621      21.89160974        6        1
Ga      31.87637427     -36.06317951      18.30549317        3        1
Ga      31.82474841     -36.06582323      20.78678499        4        1
S       30.95660592     -37.90255068      17.18681518        5        1
S       30.88881579     -37.92339953      21.87117391        6        1
Ga      28.88175414     -38.03553647      18.28171572        3        1
Ga      28.82445460     -38.03530511      20.76337525        4        1
S       27.95221490     -39.86833993      17.16275477        5        1
S       27.88082652     -39.88669670      21.84933373        6        1
Ga      25.87616892     -39.99463013      18.25779486        3        1
Ga      25.81725123     -39.99448893      20.73944736        4        1
S       24.93309469     -41.82168766      17.14190741        5        1
S       24.86521010     -41.83855378      21.82894350        6        1
Ga      22.85639548     -41.94220714      18.23739475        3        1
Ga      22.80144712     -41.94364405      20.71850526        4        1
S       21.89975729     -43.76605059      17.12640838        5        1
S       21.84134367     -43.78046821      21.81242548        6        1
Ga      19.82272422     -43.88255323      18.22156912        3        1
Ga      19.77689668     -43.88497650      20.70198051        4        1
S       18.85571095     -45.70567750      17.11502188        5        1
S       18.81017271     -45.71586788      21.79979402        6        1
Ga      16.77858823     -45.81951642      18.20901049        3        1
Ga      16.74514849     -45.82143937      20.68893614        4        1
S       15.80509370     -47.64364091      17.10569403        5        1
S       15.77402814     -47.64818750      21.78978444        6        1
Ga      13.72830680     -47.75540333      18.19845159        3        1
Ga      13.70874038     -47.75581579      20.67818777        4        1
S       12.75179063     -49.58169815      17.09744724        5        1
S       12.73597060     -49.58022854      21.78164377        6        1
Ga      10.67612632     -49.69187966      18.18978558        3        1
Ga      10.67062702     -49.69069426      20.66961670        4        1
S        9.69957389     -51.52135944      17.09083191        5        1
S        9.69934590     -51.51445968      21.77593548        6        1
Ga       7.62624532     -51.63125943      18.18437178        3        1
Ga       7.63393916     -51.62886986      20.66447463        4        1
S        6.65247101     -53.46536720      17.08795566        5        1
S        6.66740891     -53.45351610      21.77457525        6        1
Ga       4.58306415     -53.57743566      18.18480133        3        1
Ga       4.60173244     -53.57353346      20.66523737        4        1
S        3.61493786     -55.41793367      17.09188327        5        1
S        3.64257779     -55.40040652      21.77999753        6        1
Ga       1.55065034     -55.53543214      18.19336956        3        1
Ga       1.57653555     -55.52756494      20.67400827        4        1
S       68.90882613     -57.38315243      17.10401776        5        1
S       68.94361152     -57.35769680      21.79262478        6        1
Ga      66.84918212     -57.50812201      18.20863122        3        1
Ga      66.87773620     -57.49178874      20.68923349        4        1
S       65.89801685     -59.36160810      17.12040791        5        1
S       65.93240993     -59.32568598      21.80830406        6        1
Ga      63.84047381     -59.49273718      18.22362691        3        1
Ga      63.86794037     -59.46366888      20.70416347        4        1
S       62.89731163     -61.34932387      17.13296193        5        1
S       62.92518242     -61.30104308      21.81981203        6        1
Ga      60.83843423     -61.48165739      18.23072827        3        1
Ga      60.86321556     -61.43812167      20.71144729        4        1
S       59.90129156     -63.33972718      17.13575901        5        1
S       59.92116200     -63.27801586      21.82228579        6        1
Ga      57.83859918     -63.46530336      18.22790153        3        1
Ga      57.86166420     -63.40974810      20.70909111        4        1
S       56.90554946     -65.32403342      17.12860165        5        1
S       56.92098699     -65.25121218      21.81665435        6        1
Ga      54.83943060     -65.43586371      18.21914726        3        1
Ga      54.86291622     -65.37484433      20.70089145        4        1
S       53.90976778     -67.29485391      17.11641640        5        1
S       53.92568795     -67.21760549      21.80749715        6        1
Ga      51.84324847     -67.39164885      18.20975543        3        1
Ga      51.86797451     -67.33237060      20.69188441        4        1
S       50.91656881     -69.25032416      17.10449071        5        1
S       50.93522218     -69.17649468      21.79840590        6        1
Ga      48.85258078     -69.33479558      18.20184855        3        1
Ga      48.87733956     -69.28249934      20.68417193        4        1
S       47.92566378     -71.19125988      17.09536313        5        1
S       47.94757459     -71.12732209      21.79037290        6        1
Ga      45.86502260     -71.26641905      18.19546538        3        1
Ga      45.88909043     -71.22473804      20.67779717        4        1
S       44.93258642     -73.11828885      17.09002571        5        1
S       44.95920825     -73.06855517      21.78405291        6        1
Ga      42.87426144     -73.18642771      18.19130999        3        1
Ga      42.89940719     -73.15804905      20.67348974        4        1
S       41.93424213     -75.03303162      17.08868499        5        1
S       41.96741747     -74.99958795      21.78071809        6        1
Ga      39.87681554     -75.09622735      18.19041794        3        1
Ga      39.90578895     -75.08265362      20.67228790        4        1
S       38.93193443     -76.93895226      17.09090500        5        1
S       38.97209167     -76.92223176      21.78085225        6        1
Ga      36.87450717     -76.99931011      18.19284823        3        1
Ga      36.90861102     -77.00083388      20.67433461        4        1
S       35.92943367     -78.84027925      17.09586818        5        1
S       35.97522131     -78.83990415      21.78403396        6        1
Ga      33.87167629     -78.90000028      18.19817402        3        1
Ga      33.91013353     -78.91615714      20.67929745        4        1
S       32.93078962     -80.74131118      17.10307404        5        1
S       32.97949661     -80.75647257      21.78983900        6        1
Ga      30.87276263     -80.80328344      18.20635620        3        1
Ga      30.91298759     -80.83279307      20.68720936        4        1
S       29.93920770     -82.64674327      17.11240056        5        1
S       29.98722494     -82.67598791      21.79839967        6        1
Ga      27.88122329     -82.71517497      18.21796145        3        1
Ga      27.91926655     -82.75534701      20.69876740        4        1
S       26.95608814     -84.56202925      17.12431754        5        1
S       26.99972311     -84.60272480      21.81049453        6        1
Ga      24.89897459     -84.64233489      18.23404000        3        1
Ga      24.93012542     -84.68848800      20.71505986        4        1
S       23.98071961     -86.49281603      17.13987533        5        1
S       24.01682764     -86.54081444      21.82695704        6        1
Ga      21.92565301     -86.58965866      18.25510812        3        1
Ga      21.94561067     -86.63583386      20.73633484        4        1
S       21.01136107     -88.44264946      17.15951860        5        1
S       21.03670852     -88.49316774      21.84697771        6        1
Ga      58.49245090     -14.70532113      18.20367320        3        1
Ga      58.53004896     -14.75239581      20.68579001        4        1
S       57.53931932     -16.54123226      17.10857784        5        1
S       57.59732079     -16.59043826      21.80052797        6        1
Ga      55.48663787     -16.62637660      18.22215903        3        1
Ga      55.52690320     -16.68202938      20.70432720        4        1
S       54.54195896     -18.46956823      17.13267891        5        1
S       54.60183953     -18.52398371      21.82257814        6        1
Ga      52.49111461     -18.56829306      18.24967549        3        1
Ga      52.52898426     -18.62497309      20.73177885        4        1
S       51.55722113     -20.41964616      17.16566993        5        1
S       51.61157659     -20.47191681      21.85237848        6        1
Ga      49.50641305     -20.53405243      18.28489684        3        1
Ga      49.53663932     -20.58367039      20.76656671        4        1
S       48.58243583     -22.39034667      17.20272788        5        1
S       48.62443153     -22.43605653      21.88601124        6        1
Ga      46.52959385     -22.51810570      18.32119488        3        1
Ga      46.54864409     -22.55677530      20.80224143        4        1
S       45.61263900     -24.37475129      17.23541904        5        1
S       45.63795119     -24.41435507      21.91633991        6        1
Ga      43.55637576     -24.51183117      18.34975291        3        1
Ga      43.56283279     -24.54008225      20.83061376        4        1
S       42.64399766     -26.36665105      17.25711120        5        1
S       42.65036518     -26.40180767      21.93669846        6        1
Ga      40.58298720     -26.50844619      18.36510926        3        1
Ga      40.57692647     -26.52838302      20.84624851        4        1
S       39.67346553     -28.36161680      17.26521490        5        1
S       39.66087843     -28.39260586      21.94417197        6        1
Ga      37.60712570     -28.50437606      18.36697832        3        1
Ga      37.58952998     -28.51734531      20.84831667        4        1
S       36.69855423     -30.35655749      17.26090192        5        1
S       36.66931260     -30.38230388      21.93958285        6        1
Ga      34.62768895     -30.49826883      18.35789599        3        1
Ga      34.60008332     -30.50413361      20.83902869        4        1
S       33.71829723     -32.34886681      17.24652560        5        1
S       33.67541751     -32.36810989      21.92576308        6        1
Ga      31.64434008     -32.48724074      18.34029069        3        1
Ga      31.60827688     -32.48646042      20.82119380        4        1
S       30.73201717     -34.33417634      17.22443299        5        1
S       30.67836129     -34.34764150      21.90550979        6        1
Ga      28.65612527     -34.46720538      18.31605980        3        1
Ga      28.61325887     -34.46173006      20.79710596        4        1
S       27.73789102     -36.30843006      17.19711920        5        1
S       27.67683065     -36.31826619      21.88098170        6        1
Ga      25.66077618     -36.43535908      18.28784315        3        1
Ga      25.61344247     -36.42756184      20.76916644        4        1
S       24.73267827     -38.27033974      17.16845051        5        1
S       24.66922744     -38.27777982      21.85472490        6        1
Ga      22.65485176     -38.39112659      18.25949588        3        1
Ga      22.60680058     -38.38302719      20.74073812        4        1
S       21.71402555     -40.22140611      17.14296889        5        1
S       21.65415874     -40.22594200      21.82996836        6        1
Ga      19.63576567     -40.33673443      18.23433723        3        1
Ga      19.59188707     -40.32913877      20.71512650        4        1
S       18.68275947     -42.16461765      17.12240698        5        1
S       18.63143975     -42.16504621      21.80880668        6        1
Ga      16.60429677     -42.27552309      18.21339078        3        1
Ga      16.56889155     -42.26815886      20.69368804        4        1
S       15.64203436     -44.10291807      17.10589494        5        1
S       15.60254064     -44.09850256      21.79147479        6        1
Ga      13.56387359     -44.21025550      18.19633365        3        1
Ga      13.53959963     -44.20268325      20.67634820        4        1
S       12.59576182     -46.03837078      17.09236524        5        1
S       12.57007034     -46.02945339      21.77755745        6        1
Ga      10.51869543     -46.14296836      18.18294477        3        1
Ga      10.50671210     -46.13535965      20.66293032        4        1
S        9.54784257     -47.97272636      17.08169851        5        1
S        9.53711197     -47.96060234      21.76714968        6        1
Ga       7.47308657     -48.07601464      18.17373837        3        1
Ga       7.47329928     -48.06904278      20.65385177        4        1
S        6.50229505     -49.90866228      17.07501688        5        1
S        6.50686538     -49.89462755      21.76130095        6        1
Ga       4.43135935     -50.01311817      18.17026837        3        1
Ga       4.44245566     -50.00707400      20.65057669        4        1
S        3.46344213     -51.85043054      17.07463560        5        1
S        3.48210674     -51.83455848      21.76198128        6        1
Ga       1.39781367     -51.95962095      18.17468530        3        1
Ga       1.41696071     -51.95297938      20.65513111        4        1
S       68.75381221     -53.80331513      17.08278233        5        1
S       68.78252789     -53.78350393      21.77067630        6        1
Ga      66.69386882     -53.92040649      18.18743353        3        1
Ga      66.71690109     -53.90912305      20.66782812        4        1
S       65.73921815     -55.77051370      17.09813933        5        1
S       65.77087367     -55.74329565      21.78548006        6        1
Ga      63.68315454     -55.89593475      18.20399127        3        1
Ga      63.70580879     -55.87481303      20.68416770        4        1
S       62.73643148     -57.75035976      17.11380847        5        1
S       62.76326725     -57.71257604      21.79998237        6        1
Ga      60.68072377     -57.88048241      18.21597785        3        1
Ga      60.70015325     -57.84593041      20.69610102        4        1
S       59.74053130     -59.73705534      17.12190051        5        1
S       59.75814057     -59.68641446      21.80732235        6        1
Ga      57.68166077     -59.86432003      18.21814292        3        1
Ga      57.69754150     -59.81666185      20.69861025        4        1
S       56.74546213     -61.72147892      17.11932972        5        1
S       56.75531497     -61.65854981      21.80564352        6        1
Ga      54.68210694     -61.83739695      18.21209404        3        1
Ga      54.69651054     -61.78200555      20.69319492        4        1
S       53.74773101     -63.69398116      17.10944778        5        1
S       53.75558300     -63.62442614      21.79858942        6        1
Ga      51.68189004     -63.79523009      18.20343787        3        1
Ga      51.69737211     -63.73977875      20.68515251        4        1
S       50.74904604     -65.65098052      17.09831828        5        1
S       50.75974184     -65.58272184      21.79087086        6        1
Ga      48.68393547     -65.73984384      18.19619578        3        1
Ga      48.70136570     -65.69034895      20.67832850        4        1
S       47.75228856     -67.59427718      17.08951077        5        1
S       47.76748504     -67.53394958      21.78456515        6        1
Ga      45.69004607     -67.67422133      18.19099104        3        1
Ga      45.70869237     -67.63431717      20.67330057        4        1
S       44.75650623     -69.52564971      17.08391619        5        1
S       44.77666644     -69.47785476      21.77954321        6        1
Ga      42.69717379     -69.59904788      18.18728772        3        1
Ga      42.71705774     -69.57114524      20.66960045        4        1
S       41.75769828     -71.44571658      17.08147264        5        1
S       41.78407562     -71.41313256      21.77609425        6        1
Ga      39.70015667     -71.51413163      18.18547207        3        1
Ga      39.72306761     -71.50000967      20.66765999        4        1
S       38.75378318     -73.35601227      17.08213088        5        1
S       38.78781210     -73.33962987      21.77517221        6        1
Ga      36.69702230     -73.42100440      18.18639378        3        1
Ga      36.72506118     -73.42159962      20.66836886        4        1
S       35.74637269     -75.25968594      17.08584979        5        1
S       35.78846890     -75.25947323      21.77729264        6        1
Ga      33.68996146     -75.32313826      18.19040288        3        1
Ga      33.72400022     -75.33857480      20.67214254        4        1
S       32.73923560     -77.16089249      17.09254234        5        1
S       32.78843084     -77.17624218      21.78257436        6        1
Ga      30.68322244     -77.22517475      18.19781138        3        1
Ga      30.72237910     -77.25487462      20.67933231        4        1
S       29.73663578     -79.06445199      17.10260322        5        1
S       29.79057577     -79.09411893      21.79142907        6        1
Ga      27.68133454     -79.13305138      18.20947740        3        1
Ga      27.72289738     -79.17517873      20.69091004        4        1
S       26.74247985     -80.97623778      17.11697761        5        1
S       26.79723555     -81.01769157      21.80491363        6        1
Ga      24.68820226     -81.05426251      18.22699504        3        1
Ga      24.72762883     -81.10456801      20.70851829        4        1
S       23.75888175     -82.90291048      17.13687232        5        1
S       23.80935584     -82.95170891      21.82428479        6        1
Ga      61.33178433      -9.23513629      18.18746372        3        1
Ga      61.35408294      -9.26600472      20.66978609        4        1
S       60.36916013     -11.06101177      17.08493397        5        1
S       60.40986917     -11.09891975      21.78030040        6        1
Ga      58.31120386     -11.14366587      18.19656716        3        1
Ga      58.34166088     -11.18699795      20.67888174        4        1
S       57.35008058     -12.97189779      17.09765319        5        1
S       57.40176285     -13.02129879      21.79212819        6        1
Ga      55.29457492     -13.06027566      18.21165625        3        1
Ga      55.33157427     -13.11356651      20.69398997        4        1
S       54.33894619     -14.89497752      17.11836152        5        1
S       54.39862083     -14.95088656      21.81101020        6        1
Ga      52.28629304     -14.99369825      18.23533564        3        1
Ga      52.32611322     -15.05108003      20.71760550        4        1
S       51.34020070     -16.83817163      17.14948564        5        1
S       51.40133590     -16.89274647      21.83845748        6        1
Ga      49.28913539     -16.95041108      18.26842592        3        1
Ga      49.32652158     -17.00340694      20.75032868        4        1
S       48.35442660     -18.80396226      17.18864816        5        1
S       48.40883141     -18.85018632      21.87285958        6        1
Ga      46.30243425     -18.92892937      18.30708232        3        1
Ga      46.33252829     -18.97109209      20.78835052        4        1
S       45.37746418     -20.78684947      17.22797398        5        1
S       45.41882912     -20.82312201      21.90861780        6        1
Ga      43.32272815     -20.92160598      18.34316062        3        1
Ga      43.34248347     -20.95122149      20.82410731        4        1
S       42.40440174     -22.77957083      17.25898353        5        1
S       42.42901421     -22.80800683      21.93809761        6        1
Ga      40.34561929     -22.92029903      18.36831290        3        1
Ga      40.35402787     -22.93886127      20.84967926        4        1
S       39.43195050     -24.77698144      17.27637904        5        1
S       39.43812877     -24.79922438      21.95548258        6        1
Ga      37.36809821     -24.91927279      18.37918260        3        1
Ga      37.36531277     -24.92910104      20.86112960        4        1
S       36.45768994     -26.77543598      17.28005616        5        1
S       36.44600972     -26.79150084      21.95925306        6        1
Ga      34.38856913     -26.91643530      18.37721840        3        1
Ga      34.37562600     -26.91847481      20.85906737        4        1
S       33.47982323     -28.77225095      17.27227048        5        1
S       33.45271745     -28.78128015      21.95112636        6        1
Ga      31.40618791     -28.91007855      18.36470304        3        1
Ga      31.38481734     -28.90446402      20.84587802        4        1
S       30.49738708     -30.76368790      17.25428664        5        1
S       30.45795915     -30.76604128      21.93370941        6        1
Ga      28.42062542     -30.89647537      18.34317695        3        1
Ga      28.39250729     -30.88462161      20.82391976        4        1
S       27.50940024     -32.74526901      17.22784992        5        1
S       27.46087115     -32.74325289      21.90948507        6        1
Ga      25.43091089     -32.87215293      18.31490219        3        1
Ga      25.39761375     -32.85633884      20.79573270        4        1
S       24.51424525     -34.71467008      17.19615752        5        1
S       24.46002561     -34.71042736      21.88085008        6        1
Ga      22.43485836     -34.83524439      18.28302175        3        1
Ga      22.39845094     -34.81778548      20.76405042        4        1
S       21.50948472     -36.67193890      17.16347766        5        1
S       21.45379768     -36.66603183      21.85061758        6        1
Ga      19.42963995     -36.78601206      18.25106505        3        1
Ga      19.39318499     -36.76876687      20.73205406        4        1
S       18.49342881     -38.61871915      17.13390826        5        1
S       18.44110854     -38.61053284      21.82185067        6        1
Ga      16.41354577     -38.72671146      18.22214305        3        1
Ga      16.38069551     -38.71068108      20.70286756        4        1
S       15.46668415     -40.55742067      17.10937225        5        1
S       15.42217982     -40.54641276      21.79689352        6        1
Ga      13.38735243     -40.66023290      18.19823261        3        1
Ga      13.36134425     -40.64577398      20.67867891        4        1
S       12.43181584     -42.49037571      17.09009292        5        1
S       12.39851187     -42.47694497      21.77687860        6        1
Ga      10.35389429     -42.58916968      18.18008484        3        1
Ga      10.33687914     -42.57668890      20.66035315        4        1
S        9.39236911     -44.41971400      17.07582492        5        1
S        9.37245600     -44.40530749      21.76213965        6        1
Ga       7.31687918     -44.51620591      18.16777583        3        1
Ga       7.30989747     -44.50642296      20.64799093        4        1
S        6.35220317     -46.34822336      17.06662272        5        1
S        6.34679612     -46.33453034      21.75293621        6        1
Ga       4.28040040     -46.44504346      18.16158907        3        1
Ga       4.28329794     -46.43847156      20.64183874        4        1
S        3.31550371     -48.28015133      17.06345740        5        1
S        3.32437820     -48.26782462      21.75017154        6        1
Ga       1.24873093     -48.38096636      18.16265836        3        1
Ga       1.25992645     -48.37675380      20.64296373        4        1
S       68.60493568     -50.22123257      17.06812606        5        1
S       68.62560476     -50.20865158      21.75520241        6        1
Ga      66.54410272     -50.32993289      18.17214074        3        1
Ga      66.56031332     -50.32471588      20.65240883        4        1
S       65.58767730     -52.17658685      17.08112182        5        1
S       65.61434053     -52.15991432      21.76783890        6        1
Ga      63.53195408     -52.29512846      18.18814893        3        1
Ga      63.54891447     -52.28349980      20.66816946        4        1
S       62.58270197     -54.14720214      17.09810425        5        1
S       62.60719792     -54.12213349      21.78369427        6        1
Ga      60.52906434     -54.27355400      18.20363918        3        1
Ga      60.54300856     -54.25049066      20.68343665        4        1
S       59.58669328     -56.12877319      17.11088281        5        1
S       59.60215222     -56.09196292      21.79539866        6        1
Ga      57.53115610     -56.25654334      18.21105970        3        1
Ga      57.54028249     -56.22017332      20.69099868        4        1
S       56.59343705     -58.11283034      17.11358986        5        1
S       56.59821130     -58.06314471      21.79825332        6        1
Ga      54.53318310     -58.23299681      18.20871859        3        1
Ga      54.53849729     -58.18658275      20.68922102        4        1
S       53.59688500     -60.08840127      17.10677928        5        1
S       53.59552491     -60.02966977      21.79361903        6        1
Ga      51.53228164     -60.19524530      18.20098177        3        1
Ga      51.53683349     -60.14601632      20.68220215        4        1
S       50.59568537     -62.04884755      17.09609160        5        1
S       50.59488025     -61.98868402      21.78637271        6        1
Ga      48.52967264     -62.14336424      18.19319482        3        1
Ga      48.53617531     -62.09813016      20.67501120        4        1
S       47.59307037     -63.99520678      17.08663614        5        1
S       47.59691886     -63.94058694      21.78025100        6        1
Ga      45.52848986     -64.08114834      18.18777026        3        1
Ga      45.53778499     -64.04409658      20.66996802        4        1
S       44.59141352     -65.93068589      17.08026444        5        1
S       44.60115264     -65.88642798      21.77599881        6        1
Ga      42.52955181     -66.01076919      18.18442538        3        1
Ga      42.54141279     -65.98429960      20.66677065        4        1
S       41.58922686     -67.85646091      17.07691439        5        1
S       41.60549650     -67.82575089      21.77306652        6        1
Ga      39.52975032     -67.93190312      18.18254322        3        1
Ga      39.54473197     -67.91784044      20.66488538        4        1
S       38.58346193     -69.77265316      17.07620757        5        1
S       38.60741471     -69.75732391      21.77165927        6        1
Ga      36.52543163     -69.84435861      18.18246869        3        1
Ga      36.54513055     -69.84410330      20.66473250        4        1
S       35.57313244     -71.68074920      17.07823228        5        1
S       35.60593102     -71.68136585      21.77259362        6        1
Ga      33.51598437     -71.75012276      18.18500676        3        1
Ga      33.54190542     -71.76434575      20.66715238        4        1
S       32.56021741     -73.58403364      17.08326619        5        1
S       32.60226637     -73.60033013      21.77652105        6        1
Ga      30.50392333     -73.65315220      18.19081417        3        1
Ga      30.53652653     -73.68179616      20.67282848        4        1
S       29.54837972     -75.48711152      17.09191063        5        1
S       29.59902260     -75.51811882      21.78408052        6        1
Ga      27.49334326     -75.55889503      18.20079465        3        1
Ga      27.53158120     -75.60095636      20.68274871        4        1
S       26.54206727     -77.39587255      17.10546451        5        1
S       26.59905619     -77.43936778      21.79650784        6        1
Ga      64.19242714      -3.76538113      18.18076401        3        1
Ga      64.19414950      -3.78018091      20.66314905        4        1
S       63.22921787      -5.58858999      17.07441573        5        1
S       63.24324190      -5.61176695      21.77076090        6        1
Ga      61.16605075      -5.67809831      18.18428885        3        1
Ga      61.17697888      -5.70455527      20.66662248        4        1
S       60.19997021      -7.49899754      17.08008687        5        1
S       60.22679047      -7.53512057      21.77586040        6        1
Ga      58.13783340      -7.58911385      18.19101253        3        1
Ga      58.15869247      -7.62683514      20.67334818        4        1
S       57.17136088      -9.41066531      17.08974414        5        1
S       57.21162962      -9.45785831      21.78497101        6        1
Ga      55.11126631      -9.50425410      18.20257379        3        1
Ga      55.14166607      -9.55180021      20.68494670        4        1
S       54.14760581     -11.33045778      17.10592544        5        1
S       54.20052238     -11.38490644      21.80010963        6        1
Ga      52.09073779     -11.43106625      18.22161572        3        1
Ga      52.12843517     -11.48474325      20.70398789        4        1
S       51.13402723     -13.26655824      17.13201560        5        1
S       51.19537984     -13.32148357      21.82347265        6        1
Ga      49.08042065     -13.37745288      18.25025353        3        1
Ga      49.12102124     -13.43040113      20.73235952        4        1
S       48.13436267     -15.22458251      17.16863903        5        1
S       48.19623858     -15.27190654      21.85519974        6        1
Ga      46.08207160     -15.34670748      18.28702940        3        1
Ga      46.12006659     -15.39124400      20.76854186        4        1
S       45.14720916     -17.20279663      17.21014813        5        1
S       45.20144443     -17.23788641      21.89189806        6        1
Ga      43.09385936     -17.33446524      18.32600679        3        1
Ga      43.12465334     -17.36620422      20.80698972        4        1
S       42.16770771     -19.19434911      17.24786728        5        1
S       42.20853001     -19.21770287      21.92691941        6        1
Ga      40.11159581     -19.33279317      18.35852898        3        1
Ga      40.13264386     -19.35128012      20.83967171        4        1
S       39.19163013     -21.19298058      17.27399567        5        1
S       39.21547660     -21.20682228      21.95281042        6        1
Ga      37.13138074     -21.33426189      18.37787176        3        1
Ga      37.14172225     -21.34132145      20.85976717        4        1
S       36.21617796     -23.19407449      17.28540272        5        1
S       36.22165877     -23.19966363      21.96509879        6        1
Ga      34.15074776     -23.33450637      18.38287875        3        1
Ga      34.15068259     -23.33208124      20.86512692        4        1
S       33.23902514     -25.19441454      17.28404337        5        1
S       33.22735389     -25.19177816      21.96358137        6        1
Ga      31.16795853     -25.33190401      18.37558686        3        1
Ga      31.15929990     -25.32067113      20.85727067        4        1
S       30.25845756     -27.19085072      17.27148823        5        1
S       30.23280183     -27.18022720      21.95050164        6        1
Ga      28.18252708     -27.32362249      18.35797319        3        1
Ga      28.16753770     -27.30460185      20.83885529        4        1
S       27.27366454     -29.17888059      17.24866797        5        1
S       27.23780930     -29.16255308      21.92871438        6        1
Ga      25.19462747     -29.30552684      18.33228295        3        1
Ga      25.17494008     -29.28111931      20.81287664        4        1
S       24.28416590     -31.15486253      17.21830376        5        1
S       24.24143712     -31.13614313      21.90101331        6        1
Ga      22.20352293     -31.27460511      18.30142852        3        1
Ga      22.18041247     -31.24769224      20.78216680        4        1
S       21.28891778     -33.11747195      17.18389235        5        1
S       21.24226575     -33.09880051      21.86978888        6        1
Ga      19.20758418     -33.22965638      18.26812991        3        1
Ga      19.18251038     -33.20309632      20.74901567        4        1
S       18.28615171     -35.06724819      17.14933674        5        1
S       18.23895761     -35.04957819      21.83751195        6        1
Ga      16.20494962     -35.17188949      18.23532583        3        1
Ga      16.17974613     -35.14785072      20.71621104        4        1
S       15.27460438     -37.00611589      17.11835952        5        1
S       15.23076553     -36.98942536      21.80721614        6        1
Ga      13.19437549     -37.10415926      18.20633940        3        1
Ga      13.17125560     -37.08380525      20.68707825        4        1
S       12.25446599     -38.93661474      17.09340480        5        1
S       12.21781715     -38.92091982      21.78176499        6        1
Ga      10.17605241     -39.02957793      18.18364848        3        1
Ga      10.15734748     -39.01355152      20.66418259        4        1
S        9.22760934     -40.86136123      17.07524240        5        1
S        9.20117370     -40.84744310      21.76271290        6        1
Ga       7.15177649     -40.95128702      18.16799205        3        1
Ga       7.13947632     -40.94016806      20.64835106        4        1
S        6.19696724     -42.78341622      17.06356819        5        1
S        6.18275604     -42.77253841      21.75032388        6        1
Ga       4.12457044     -42.87308769      18.15909204        3        1
Ga       4.11988910     -42.86724896      20.63935536        4        1
S        3.16622332     -44.70695346      17.05808709        5        1
S        3.16507005     -44.69982583      21.74458130        6        1
Ga      69.41658389     -44.80000205      18.15700983        3        1
Ga      69.41943062     -44.79890270      20.63725507        4        1
S       68.45785012     -46.63767227      17.05957973        5        1
S       68.46890345     -46.63312297      21.74614185        6        1
Ga      66.39557664     -46.73821770      18.16274479        3        1
Ga      66.40406001     -46.73921512      20.64297127        4        1
S       65.43973737     -48.58159807      17.06920019        5        1
S       65.45912206     -48.57605422      21.75561941        6        1
Ga      63.38319834     -48.69272886      18.17627151        3        1
Ga      63.39370111     -48.69079029      20.65632935        4        1
S       62.43284438     -50.54212411      17.08534248        5        1
S       62.45329145     -50.53065662      21.77083886        6        1
Ga      60.37996039     -50.66352807      18.19309659        3        1
Ga      60.38836244     -50.65284606      20.67285408        4        1
S       59.43608663     -52.51711706      17.10124366        5        1
S       59.44937363     -52.49546290      21.78550061        6        1
Ga      57.38299341     -52.64393542      18.20509556        3        1
Ga      57.38628983     -52.62082215      20.68478762        4        1
S       56.44451348     -54.49947141      17.10924936        5        1
S       56.44578927     -54.46510992      21.79296910        6        1
Ga      54.38737970     -54.62318971      18.20731725        3        1
Ga      54.38502086     -54.58843082      20.68739443        4        1
S       53.45100185     -56.47826093      17.10665310        5        1
S       53.44201688     -56.43280617      21.79164677        6        1
Ga      51.38845377     -56.59116471      18.20157084        3        1
Ga      51.38277304     -56.55056498      20.68235220        4        1
S       50.45092540     -58.44391210      17.09725676        5        1
S       50.43840021     -58.39391345      21.78525747        6        1
Ga      48.38486947     -58.54476148      18.19339420        3        1
Ga      48.37947096     -58.50552065      20.67488004        4        1
S       47.44546460     -60.39486377      17.08703225        5        1
S       47.43568423     -60.34770862      21.77854082        6        1
Ga      45.37898754     -60.48731171      18.18686006        3        1
Ga      45.37634216     -60.45435654      20.66885644        4        1
S       44.43822050     -62.33475305      17.07930341        5        1
S       44.43430555     -62.29567307      21.77384598        6        1
Ga      42.37350257     -62.42229730      18.18291951        3        1
Ga      42.37435034     -62.39821657      20.66520119        4        1
S       41.43051157     -64.26618630      17.07473834        5        1
S       41.43359152     -64.23855155      21.77105169        6        1
Ga      39.36810494     -64.35010357      18.18089108        3        1
Ga      39.37279681     -64.33667086      20.66328500        4        1
S       38.42068484     -66.18913396      17.07291767        5        1
S       38.43174031     -66.17533950      21.76962164        6        1
Ga      36.36006694     -66.26955522      18.18037262        3        1
Ga      36.36966044     -66.26843477      20.66276657        4        1
S       35.40690154     -68.10352050      17.07356440        5        1
S       35.42716488     -68.10488699      21.76985604        6        1
Ga      33.34745090     -68.18109159      18.18186577        3        1
Ga      33.36339182     -68.19338648      20.66421111        4        1
S       32.38936850     -70.01123761      17.07693671        5        1
S       32.41985821     -70.02796952      21.77254894        6        1
Ga      30.33090186     -70.08756296      18.18614505        3        1
Ga      30.35427789     -70.11362665      20.66843264        4        1
S       29.37042116     -71.91609189      17.08360564        5        1
S       29.41157625     -71.94757876      21.77847993        6        1
Ga      61.01021600      -2.12186390      18.18288813        3        1
Ga      61.00759705      -2.14457795      20.66513479        4        1
S       60.04121834      -3.93925379      17.07808546        5        1
S       60.05163225      -3.97350984      21.77295485        6        1
Ga      57.97532340      -4.03673750      18.18752925        3        1
Ga      57.98376963      -4.06926630      20.66973326        4        1
S       57.00468669      -5.85349993      17.08532550        5        1
S       57.02978340      -5.89789051      21.77949497        6        1
Ga      54.94013709      -5.95295278      18.19593564        3        1
Ga      54.96008509      -5.99417359      20.67818589        4        1
S       53.97024498      -7.77247391      17.09734654        5        1
S       54.01070077      -7.82395121      21.79093733        6        1
Ga      51.90843940      -7.87661132      18.21033462        3        1
Ga      51.93905851      -7.92417721      20.69265617        4        1
S       50.94270789      -9.70339953      17.11737005        5        1
S       50.99694975      -9.75662426      21.80967099        6        1
Ga      48.88480203      -9.81478608      18.23347296        3        1
Ga      48.92319530      -9.86415400      20.71570098        4        1
S       47.92751092     -11.65318889      17.14809938        5        1
S       47.98977351     -11.70069142      21.83706994        6        1
Ga      45.87298924     -11.77341462      18.26587193        3        1
Ga      45.91413976     -11.81784853      20.74763411        4        1
S       44.92699875     -13.62403136      17.18730126        5        1
S       44.98849886     -13.65933347      21.87138881        6        1
Ga      42.87367525     -13.75289688      18.30362009        3        1
Ga      42.91190367     -13.78626982      20.78473864        4        1
S       41.93814560     -15.61163504      17.22742303        5        1
S       41.99106078     -15.63265336      21.90761830        6        1
Ga      39.88385442     -15.74741859      18.33939216        3        1
Ga      39.91492931     -15.76698562      20.82021644        4        1
S       38.95622521     -17.60948188      17.26000348        5        1
S       38.99505436     -17.61757671      21.93865374        6        1
Ga      36.89916902     -17.74919071      18.36530152        3        1
Ga      36.92082412     -17.75523986      20.84651068        4        1
S       35.97762186     -19.61204507      17.27897451        5        1
S       35.99901217     -19.60903054      21.95804394        6        1
Ga      33.91612415     -19.75192334      18.37686345        3        1
Ga      33.92771731     -19.74613559      20.85861231        4        1
S       32.99951869     -21.61509658      17.28355379        5        1
S       33.00289994     -21.60191189      21.96296446        6        1
Ga      30.93217138     -21.75244056      18.37424241        3        1
Ga      30.93500404     -21.73611831      20.85590833        4        1
S       30.01949128     -23.61540736      17.27564204        5        1
S       30.00738182     -23.59250618      21.95451711        6        1
Ga      27.94609802     -23.74840118      18.36003493        3        1
Ga      27.94270888     -23.72254959      20.84109665        4        1
S       27.03605404     -25.60888422      17.25685704        5        1
S       27.01281466     -25.57819206      21.93596366        6        1
Ga      24.95814150     -25.73552126      18.33739919        3        1
Ga      24.95070916     -25.70255984      20.81805569        4        1
S       24.04912580     -27.59086277      17.22977845        5        1
S       24.01875666     -27.55635441      21.91085019        6        1
Ga      21.96865565     -27.70955410      18.30959422        3        1
Ga      21.95840610     -27.67313490      20.79026657        4        1
S       21.05888171     -29.55842555      17.19772448        5        1
S       21.02413359     -29.52440729      21.88191982        6        1
Ga      18.97721764     -29.66797091      18.27917813        3        1
Ga      18.96486515     -29.63217362      20.75999567        4        1
S       18.06465074     -31.51083152      17.16385434        5        1
S       18.02781221     -31.48067857      21.85099691        6        1
Ga      15.98299648     -31.61105407      18.24826903        3        1
Ga      15.96894608     -31.57938333      20.72910525        4        1
S       15.06526978     -33.44942315      17.13150566        5        1
S       15.02875086     -33.42503365      21.82024566        6        1
Ga      12.98471534     -33.54180042      18.21918892        3        1
Ga      12.96954033     -33.51624065      20.69992447        4        1
S       12.05966394     -35.37727131      17.10366310        5        1
S       12.02614732     -35.35897621      21.79252486        6        1
Ga       9.98107919     -35.46402456      18.19451229        3        1
Ga       9.96596590     -35.44532134      20.67508527        4        1
S        9.04757756     -37.29777637      17.08217444        5        1
S        9.01979052     -37.28534685      21.77032452        6        1
Ga       6.97155459     -37.38132899      18.17595414        3        1
Ga       6.95835932     -37.36974850      20.65635946        4        1
S        6.02996931     -39.21440539      17.06749037        5        1
S        6.01037325     -39.20779401      21.75473119        6        1
Ga       3.95705270     -39.29753198      18.16387345        3        1
Ga       3.94777636     -39.29309768      20.64415621        4        1
S        3.00910928     -41.13118298      17.05913446        5        1
S        2.99961897     -41.13033251      21.74578949        6        1
Ga      69.25834937     -41.21727955      18.15821909        3        1
Ga      69.25432280     -41.21943779      20.63846340        4        1
S       68.30676263     -43.05333094      17.05714699        5        1
S       68.30812871     -43.05717833      21.74367590        6        1
Ga      66.24272802     -43.14640194      18.15968310        3        1
Ga      66.24371346     -43.15311250      20.63993813        4        1
S       65.29073814     -44.98704676      17.06264999        5        1
S       65.30136920     -44.99248286      21.74919044        6        1
Ga      63.23251689     -45.09077815      18.16920569        3        1
Ga      63.23621036     -45.09772835      20.64940140        4        1
S       62.28331776     -46.93731188      17.07593612        5        1
S       62.29793270     -46.93940687      21.76191917        6        1
Ga      60.22997019     -47.05296529      18.18491771        3        1
Ga      60.23265754     -47.05426069      20.66486409        4        1
S       59.28579028     -48.90448780      17.09276125        5        1
S       59.29621963     -48.89833371      21.77750531        6        1
Ga      57.23405422     -49.02891355      18.19985395        3        1
Ga      57.23212234     -49.01965697      20.67956634        4        1
S       56.29524188     -50.88330067      17.10513811        5        1
S       56.29432672     -50.86543926      21.78882704        6        1
Ga      54.24090263     -51.00924154      18.20674701        3        1
Ga      54.23241676     -50.98795978      20.68660833        4        1
S       53.30528050     -52.86409197      17.10748858        5        1
S       53.29121558     -52.83401374      21.79144379        6        1
Ga      51.24540005     -52.98290872      18.20413105        3        1
Ga      51.23125528     -52.95316832      20.68458411        4        1
S       50.30902115     -54.83572590      17.10064405        5        1
S       50.28672742     -54.79799043      21.78683401        6        1
Ga      48.24400888     -54.94341889      18.19637547        3        1
Ga      48.22756208     -54.91201534      20.67755972        4        1
S       47.30448049     -56.79296762      17.09027335        5        1
S       47.28131312     -56.75494590      21.77979142        6        1
Ga      45.23711376     -56.89215993      18.18873278        3        1
Ga      45.22190124     -56.86475203      20.67051521        4        1
S       44.29447792     -58.73834642      17.08121540        5        1
S       44.27558385     -58.70591984      21.77405109        6        1
Ga      42.22747331     -58.83335154      18.18361540        3        1
Ga      42.21549584     -58.81286674      20.66578199        4        1
S       41.28191589     -60.67562669      17.07515441        5        1
S       41.26965394     -60.65244250      21.77057743        6        1
Ga      39.21659113     -60.76846240      18.18084357        3        1
Ga      39.20874876     -60.75653449      20.66320360        4        1
S       38.26701638     -62.60564073      17.07203374        5        1
S       38.26275336     -62.59423320      21.76881436        6        1
Ga      36.20332342     -62.69594424      18.17968699        3        1
Ga      36.20074294     -62.69427302      20.66210747        4        1
S       35.24850532     -64.52749427      17.07147090        5        1
S       35.25371634     -64.52966515      21.76847306        6        1
Ga      33.18592944     -64.61485304      18.18024408        3        1
Ga      33.19013309     -64.62490383      20.66264610        4        1
S       32.22596187     -66.44155463      17.07349915        5        1
S       32.24201676     -66.45807508      21.77009565        6        1
Ga      54.78233271      -2.40192564      18.19298959        3        1
Ga      54.78842473      -2.43826752      20.67489149        4        1
S       53.80757824      -4.21727438      17.09344945        5        1
S       53.83153713      -4.26592087      21.78495968        6        1
Ga      51.74171428      -4.32530281      18.20339066        3        1
Ga      51.76035969      -4.36702477      20.68532952        4        1
S       50.76862029      -6.14572451      17.10805271        5        1
S       50.80911978      -6.19632583      21.79896454        6        1
Ga      48.70610838      -6.25913028      18.22062454        3        1
Ga      48.73609521      -6.30311177      20.70261104        4        1
S       47.73852619      -8.08919123      17.13135863        5        1
S       47.79277691      -8.13538672      21.82089590        6        1
Ga      45.68010181      -8.20917624      18.24662959        3        1
Ga      45.71802060      -8.25067094      20.72843435        4        1
S       44.72234648     -10.05202233      17.16425770        5        1
S       44.78321148     -10.08712067      21.85067592        6        1
Ga      42.66699890     -10.17901970      18.27992678        3        1
Ga      42.70739445     -10.21219927      20.76122895        4        1
S       41.72083669     -12.03335298      17.20224342        5        1
S       41.77930996     -12.05337846      21.88472867        6        1
Ga      39.66642236     -12.16685734      18.31485271        3        1
Ga      39.70363984     -12.18722019      20.79563751        4        1
S       38.73011832     -14.02796254      17.23722583        5        1
S       38.77890289     -14.03275878      21.91702696        6        1
Ga      36.67456870     -14.16611656      18.34394611        3        1
Ga      36.70479923     -14.17210758      20.82461139        4        1
S       35.74576521     -16.03003461      17.26192829        5        1
S       35.77994720     -16.02111036      21.94087262        6        1
Ga      33.68700160     -16.16946131      18.36086958        3        1
Ga      33.70867258     -16.16176240      20.84182123        4        1
S       32.76438475     -18.03444663      17.27244114        5        1
S       32.78165219     -18.01321329      21.95132241        6        1
Ga      30.70037688     -18.17184272      18.36294226        3        1
Ga      30.71401554     -18.15182295      20.84408178        4        1
S       29.78336226     -20.03717231      17.26877656        5        1
S       29.78462839     -20.00460671      21.94734628        6        1
Ga      27.71305248     -20.17049888      18.35166735        3        1
Ga      27.72066152     -20.13929641      20.83266580        4        1
S       26.80054870     -22.03467026      17.25318187        5        1
S       26.78973093     -21.99209964      21.93194170        6        1
Ga      24.72491860     -22.16157657      18.33144142        3        1
Ga      24.72862702     -22.12134701      20.81227326        4        1
S       23.81480234     -24.02187814      17.22930002        5        1
S       23.79678751     -23.97299993      21.90968093        6        1
Ga      21.73603899     -24.13981670      18.30669785        3        1
Ga      21.73740646     -24.09468934      20.78759348        4        1
S       20.82651735     -25.99422356      17.20096755        5        1
S       20.80478584     -25.94456118      21.88410591        6        1
Ga      18.74637449     -26.10118700      18.28040350        3        1
Ga      18.74616122     -26.05651719      20.76142120        4        1
S       17.83624685     -27.94943515      17.17117834        5        1
S       17.81272435     -27.90461859      21.85718862        6        1
Ga      15.75592854     -28.04488069      18.25451830        3        1
Ga      15.75405428     -28.00574570      20.73544426        4        1
S       14.84381702     -29.88804394      17.14260940        5        1
S       14.81973316     -29.85249013      21.83034267        6        1
Ga      12.76429423     -29.97399917      18.23029053        3        1
Ga      12.76030973     -29.94343239      20.71094819        4        1
S       11.84853207     -31.81341375      17.11708406        5        1
S       11.82487494     -31.78916842      21.80515897        6        1
Ga       9.77052955     -31.89324948      18.20858126        3        1
Ga       9.76427360     -31.87216256      20.68896466        4        1
S        8.84931850     -33.73003516      17.09571119        5        1
S        8.82733978     -33.71686407      21.78335620        6        1
Ga       6.77341511     -33.80693358      18.19031042        3        1
Ga       6.76549312     -33.79515646      20.67053194        4        1
S        5.84546088     -35.64206828      17.07917244        5        1
S        5.82686353     -35.63870508      21.76624696        6        1
Ga       3.77210608     -35.71887804      18.17629519        3        1
Ga       3.76399322     -35.71591731      20.65645393        4        1
S        2.83720010     -37.55345337      17.06779907        5        1
S        2.82414669     -37.55853276      21.75448198        6        1
Ga      69.08532110     -37.63321476      18.16723728        3        1
Ga      69.07877845     -37.63831098      20.64741481        4        1
S       68.14458573     -39.46882800      17.06190221        5        1
S       68.13907134     -39.48069103      21.74857557        6        1
Ga      66.07871099     -39.55512037      18.16414203        3        1
Ga      66.07480948     -39.56662672      20.64441515        4        1
S       65.13451389     -41.39392351      17.06262145        5        1
S       65.13705629     -41.40968077      21.74955565        6        1
Ga      63.07411782     -41.49058579      18.16861960        3        1
Ga      63.07212494     -41.50500900      20.64896642        4        1
S       62.12945107     -43.33448769      17.07139036        5        1
S       62.13738538     -43.34949919      21.75825212        6        1
Ga      60.07468066     -43.44390771      18.18094253        3        1
Ga      60.07199237     -43.45585628      20.66117174        4        1
S       59.13241094     -45.29307614      17.08663450        5        1
S       59.13910923     -45.30211879      21.77254929        6        1
Ga      57.08099072     -45.41389694      18.19645921        3        1
Ga      57.07422730     -45.41787532      20.67642277        4        1
S       56.14283754     -47.26657586      17.10154807        5        1
S       56.14023598     -47.26562006      21.78612256        6        1
Ga      54.09062930     -47.39308201      18.20710002        3        1
Ga      54.07714030     -47.38603008      20.68700062        4        1
S       53.15614223     -49.24719688      17.10864688        5        1
S       53.13935510     -49.23418269      21.79257803        6        1
Ga      51.09921985     -49.37103572      18.20821890        3        1
Ga      51.07843967     -49.35403077      20.68851220        4        1
S       50.16517090     -51.22406809      17.10543962        5        1
S       50.13594307     -51.20102102      21.79055698        6        1
Ga      48.10218482     -51.33893773      18.20179198        3        1
Ga      48.07638351     -51.31728994      20.68277959        4        1
S       47.16482440     -53.18874973      17.09585249        5        1
S       47.13010534     -53.16197175      21.78381983        6        1
Ga      45.09769392     -53.29511108      18.19338386        3        1
Ga      45.07065938     -53.27478976      20.67501979        4        1
S       44.15567651     -55.14103043      17.08576534        5        1
S       44.12224726     -55.11691539      21.77703539        6        1
Ga      42.08735891     -55.24339376      18.18692805        3        1
Ga      42.06215087     -55.22781865      20.66900028        4        1
S       41.14092427     -57.08487303      17.07825375        5        1
S       41.11267123     -57.06755812      21.77244215        6        1
Ga      39.07331535     -57.18632585      18.18307443        3        1
Ga      39.05171047     -57.17700547      20.66537693        4        1
S       38.12217618     -59.02219063      17.07370897        5        1
S       38.10120759     -59.01431820      21.76983694        6        1
Ga      48.54257102      -2.70779782      18.21278767        3        1
Ga      48.56009038      -2.74585795      20.69417350        4        1
S       47.56691405      -4.53206631      17.12029544        5        1
S       47.60686311      -4.57490170      21.80843356        6        1
Ga      45.50405781      -4.65267758      18.23128285        3        1
Ga      45.53330865      -4.68887959      20.71270903        4        1
S       44.53557093      -6.48815296      17.14446797        5        1
S       44.58800814      -6.52085760      21.83171198        6        1
Ga      42.47657044      -6.61396333      18.25728274        3        1
Ga      42.51351075      -6.64413151      20.73856143        4        1
S       41.51913331      -8.46198646      17.17593818        5        1
S       41.57606367      -8.48005615      21.86093072        6        1
Ga      39.46268749      -8.59331605      18.28789237        3        1
Ga      39.50152275      -8.61278514      20.76880522        4        1
S       38.51692091     -10.45097854      17.20907157        5        1
S       38.56964030     -10.45299369      21.89136325        6        1
Ga      36.46087698     -10.58745159      18.31669748        3        1
Ga      36.49632236     -10.59291381      20.79731224        4        1
S       35.52451497     -12.45012538      17.23615710        5        1
S       35.56663627     -12.43686195      21.91671300        6        1
Ga      33.46666621     -12.58910764      18.33669351        3        1
Ga      33.49585154     -12.57988048      20.81730008        4        1
S       32.53760385     -14.45385996      17.25142848        5        1
S       32.56561840     -14.42667762      21.93113013        6        1
Ga      30.47566280     -14.59161332      18.34318649        3        1
Ga      30.49837662     -14.56867714      20.82396272        4        1
S       29.55320658     -16.45717012      17.25236788        5        1
S       29.56667591     -16.41747262      21.93152235        6        1
Ga      27.48556939     -16.59099566      18.33551958        3        1
Ga      27.50328917     -16.55566084      20.81643494        4        1
S       26.56942690     -18.45656697      17.23999880        5        1
S       26.57089315     -18.40545557      21.91934916        6        1
Ga      24.49643744     -18.58379514      18.31759439        3        1
Ga      24.51067831     -18.53806838      20.79864145        4        1
S       23.58448363     -20.44754030      17.21869330        5        1
S       23.57851682     -20.38760672      21.89962776        6        1
Ga      21.50832679     -20.56499032      18.29522974        3        1
Ga      21.52016882     -20.51283090      20.77649847        4        1
S       20.59724195     -22.42425140      17.19357715        5        1
S       20.58827581     -22.36110974      21.87708090        6        1
Ga      18.52013338     -22.52917569      18.27242112        3        1
Ga      18.53055186     -22.47670934      20.75386560        4        1
S       17.60804220     -24.38256991      17.16844049        5        1
S       17.59873530     -24.32346035      21.85432427        6        1
Ga      15.53114363     -24.47400641      18.25147691        3        1
Ga      15.54056769     -24.42772671      20.73279718        4        1
S       14.61789621     -26.32195544      17.14576472        5        1
S       14.60899906     -26.27349319      21.83276544        6        1
Ga      12.54154074     -26.40209265      18.23354156        3        1
Ga      12.54953478     -26.36633181      20.71439437        4        1
S       11.62732870     -28.24582607      17.12628753        5        1
S       11.61841356     -28.21198894      21.81323797        6        1
Ga       9.55163975     -28.31883115      18.21819022        3        1
Ga       9.55733429     -28.29498518      20.69853232        4        1
S        8.63589561     -30.15943744      17.10950517        5        1
S        8.62642412     -30.14109642      21.79594169        6        1
Ga       6.56122495     -30.22938148      18.20460585        3        1
Ga       6.56389028     -30.21704420      20.68460293        4        1
S        5.64251001     -32.06770580      17.09504716        5        1
S        5.63263653     -32.06359578      21.78104870        6        1
Ga       3.56934510     -32.13789600      18.19259824        3        1
Ga       3.56904984     -32.13604402      20.67246497        4        1
S        2.64612653     -33.97478381      17.08309131        5        1
S        2.63708730     -33.98279499      21.76903205        6        1
Ga      68.89349017     -34.04815094      18.18275693        3        1
Ga      68.89111981     -34.05564396      20.66269765        4        1
S       67.96497838     -35.88479854      17.07441088        5        1
S       67.95880140     -35.90254628      21.76075939        6        1
Ga      65.89746300     -35.96458411      18.17654812        3        1
Ga      65.89416630     -35.97987465      20.65669326        4        1
S       64.96411912     -37.80288155      17.07061286        5        1
S       64.96263125     -37.82724078      21.75772059        6        1
Ga      62.90144794     -37.89269897      18.17622486        3        1
Ga      62.89753792     -37.91301234      20.65662150        4        1
S       61.96502138     -39.73478141      17.07397293        5        1
S       61.96794754     -39.76130466      21.76172239        6        1
Ga      59.90820434     -39.83772562      18.18375276        3        1
Ga      59.90232560     -39.85842594      20.66425087        4        1
S       58.97117576     -41.68463752      17.08533698        5        1
S       58.97433993     -41.70792536      21.77279990        6        1
Ga      56.91912202     -41.80093535      18.19736671        3        1
Ga      56.90874258     -41.81653861      20.67770984        4        1
S       55.98378916     -43.65161597      17.10030955        5        1
S       55.97984494     -43.66711949      21.78652307        6        1
Ga      53.93288518     -43.77709945      18.20991985        3        1
Ga      53.91550382     -43.78366749      20.69009559        4        1
S       53.00036161     -45.62968913      17.11086919        5        1
S       52.98269079     -45.63459720      21.79583889        6        1
Ga      50.94624917     -45.75708350      18.21452792        3        1
Ga      50.92051213     -45.75375124      20.69487190        4        1
S       50.01510657     -47.60967517      17.11171303        5        1
S       49.98208973     -47.60367189      21.79671785        6        1
Ga      47.95490236     -47.73155271      18.21016843        3        1
Ga      47.92176391     -47.72138669      20.69108426        4        1
S       47.02134853     -49.58172124      17.10385935        5        1
S       46.97789698     -49.56887787      21.79089841        6        1
Ga      44.95554080     -49.69584949      18.20136207        3        1
Ga      44.91824536     -49.68416011      20.68293635        4        1
S       44.01664924     -51.54206316      17.09308510        5        1
S       43.97028967     -51.52849615      21.78321049        6        1
Ga      41.94799920     -51.65207880      18.19335483        3        1
Ga      41.91021325     -51.64265057      20.67540810        4        1
S       41.00312072     -53.49349548      17.08405967        5        1
S       40.95943737     -53.48377628      21.77720839        6        1
Ga      42.30101721      -3.05703923      18.23720643        3        1
Ga      42.33063993      -3.08148807      20.71813869        4        1
S       41.33375432      -4.89884839      17.15121532        5        1
S       41.38298810      -4.91270039      21.83777898        6        1
Ga      39.27400456      -5.02751330      18.26062817        3        1
Ga      39.31016835      -5.04370750      20.74155006        4        1
S       38.31851746      -6.88012852      17.17857299        5        1
S       38.36966619      -6.87861352      21.86378061        6        1
Ga      36.26065045      -7.01412505      18.28621242        3        1
Ga      36.29771423      -7.01798290      20.76698846        4        1
S       35.31641952      -8.87383514      17.20481044        5        1
S       35.36168545      -8.85672224      21.88824290        6        1
Ga      33.25807485      -9.01172508      18.30697803        3        1
Ga      33.29185872      -9.00084678      20.78770670        4        1
S       32.32266606     -10.87469062      17.22276201        5        1
S       32.35727743     -10.84283251      21.90489222        6        1
Ga      30.26152175     -11.01267968      18.31687356        3        1
Ga      30.29066204     -10.98710465      20.79774887        4        1
S       29.33327342     -12.87687121      17.22807866        5        1
S       29.35589512     -12.83162160      21.90927883        6        1
Ga      27.26745466     -13.01123013      18.31346786        3        1
Ga      27.29296103     -12.97231472      20.79458523        4        1
S       26.34611840     -14.87610144      17.21991445        5        1
S       26.35844577     -14.81873684      21.90101265        6        1
Ga      24.27541437     -15.00336853      18.29908079        3        1
Ga      24.29871990     -14.95343489      20.78045574        4        1
S       23.36025204     -16.86832310      17.20156927        5        1
S       23.36574655     -16.80089275      21.88415254        6        1
Ga      21.28671776     -16.98507281      18.27933621        3        1
Ga      21.30804456     -16.92796560      20.76098794        4        1
S       20.37414373     -18.84795272      17.17890588        5        1
S       20.37669727     -18.77520426      21.86412020        6        1
Ga      18.30045727     -18.95138667      18.25907407        3        1
Ga      18.31976107     -18.89299837      20.74097053        4        1
S       17.38590826     -20.80938870      17.15707218        5        1
S       17.38907460     -20.73895058      21.84447473        6        1
Ga      15.31348170     -20.89829715      18.24139451        3        1
Ga      15.33166192     -20.84581777      20.72325885        4        1
S       14.39553457     -22.75053370      17.13940160        5        1
S       14.40116722     -22.69038051      21.82715742        6        1
Ga      12.32418376     -22.82682847      18.22810760        3        1
Ga      12.34214671     -22.78580437      20.70948573        4        1
S       11.40480325     -24.67432298      17.12640112        5        1
S       11.41225270     -24.62987466      21.81312628        6        1
Ga       9.33372960     -24.74220458      18.21881425        3        1
Ga       9.35115473     -24.71492534      20.69949814        4        1
S        8.41511937     -26.58636282      17.11635708        5        1
S        8.42232320     -26.55966515      21.80190331        6        1
Ga       6.34387785     -26.65031353      18.21163363        3        1
Ga       6.35940084     -26.63655452      20.69172224        4        1
S        5.42644387     -28.49211369      17.10747353        5        1
S        5.43164021     -28.48269071      21.79232451        6        1
Ga       3.35525175     -28.55584976      18.20504214        3        1
Ga       3.36742219     -28.55433921      20.68478908        4        1
S        2.43770067     -30.39593713      17.09901271        5        1
S        2.44042490     -30.40204837      21.78377121        6        1
Ga      68.68557023     -30.46267231      18.19865253        3        1
Ga      68.69368519     -30.47190172      20.67832627        4        1
S       67.76605883     -32.30183240      17.09129280        5        1
S       67.76730277     -32.32108498      21.77658936        6        1
Ga      65.69771844     -32.37478332      18.19326598        3        1
Ga      65.70187058     -32.39305967      20.67311898        4        1
S       64.77491445     -34.21431657      17.08573569        5        1
S       64.77647657     -34.24362476      21.77219650        6        1
Ga      62.71034159     -34.29708635      18.19098971        3        1
Ga      62.71068376     -34.32196265      20.67121709        4        1
S       61.78405324     -36.13886136      17.08497533        5        1
S       61.78697770     -36.17391537      21.77285202        6        1
Ga      59.72493465     -36.23492889      18.19467242        3        1
Ga      59.72070692     -36.26249028      20.67525212        4        1
S       58.79617311     -38.08048380      17.09161907        5        1
S       58.79862048     -38.11576098      21.78026119        6        1
Ga      56.74271547     -38.19134661      18.20516957        3        1
Ga      56.73209286     -38.21647360      20.68584226        4        1
S       55.81319560     -40.04038678      17.10441561        5        1
S       55.80953214     -40.07074633      21.79244752        6        1
Ga      53.76270462     -40.16345799      18.21782013        3        1
Ga      53.74375122     -40.18184523      20.69836157        4        1
S       52.83396658     -42.01426656      17.11647819        5        1
S       52.81742813     -42.03642362      21.80318538        6        1
Ga      50.78212710     -42.14343571      18.22496823        3        1
Ga      50.75357209     -42.15318205      20.70554588        4        1
S       49.85450581     -43.99466563      17.12081454        5        1
S       49.82114137     -44.00690350      21.80668428        6        1
Ga      47.79746324     -44.12261730      18.22297302        3        1
Ga      47.75946790     -44.12470106      20.70395271        4        1
S       46.86860621     -45.97243705      17.11539779        5        1
S       46.82036026     -45.97610811      21.80223124        6        1
Ga      44.80515917     -46.09472555      18.21422967        3        1
Ga      44.76001156     -46.09283928      20.69584834        4        1
S       43.87141674     -47.94109492      17.10432369        5        1
S       43.81513396     -47.94079206      21.79377892        6        1
Ga      36.07470590      -3.44552317      18.25473908        3        1
Ga      36.11007936      -3.44667336      20.73559353        4        1
S       35.12265765      -5.30105448      17.17099767        5        1
S       35.16720084      -5.28064204      21.85743027        6        1
Ga      33.06332852      -5.43657129      18.27450532        3        1
Ga      33.09860482      -5.42414205      20.75540773        4        1
S       32.12146000      -7.29671599      17.18971778        5        1
S       32.15915131      -7.26162939      21.87492212        6        1
Ga      30.06071212      -7.43420060      18.28683775        3        1
Ga      30.09328871      -7.40672426      20.76792880        4        1
S       29.12674049      -9.29622135      17.19860605        5        1
S       29.15497413      -9.24716269      21.88271107        6        1
Ga      27.06240949      -9.43110591      18.28764937        3        1
Ga      27.09243362      -9.38934424      20.76907498        4        1
S       26.13518556     -11.29412863      17.19512481        5        1
S       26.15506483     -11.23220368      21.87883632        6        1
Ga      24.06646994     -11.42150272      18.27779967        3        1
Ga      24.09551241     -11.36822605      20.75956147        4        1
S       23.14589055     -13.28556118      17.18094757        5        1
S       23.16057891     -13.21308789      21.86592190        6        1
Ga      21.07458331     -13.40131675      18.26194239        3        1
Ga      21.10299326     -13.34100540      20.74394061        4        1
S       20.15903273     -15.26549481      17.16132609        5        1
S       20.17133750     -15.18710321      21.84893070        6        1
Ga      18.08817669     -15.36753326      18.24474823        3        1
Ga      18.11463244     -15.30574308      20.72693499        4        1
S       17.17247152     -17.22891815      17.14191176        5        1
S       17.18502280     -17.15170919      21.83181187        6        1
Ga      15.10396135     -17.31666536      18.22926263        3        1
Ga      15.12814128     -17.26000554      20.71152650        4        1
S       14.18297097     -19.17258136      17.12697622        5        1
S       14.19868678     -19.10455475      21.81703917        6        1
Ga      12.11658717     -19.24758634      18.21804851        3        1
Ga      12.14037957     -19.20207447      20.70000296        4        1
S       11.19054345     -21.09795903      17.11796711        5        1
S       11.21055899     -21.04511636      21.80631500        6        1
Ga       9.12493705     -21.16374359      18.21193172        3        1
Ga       9.15003027     -21.13267410      20.69323067        4        1
S        8.19786875     -23.01019167      17.11336641        5        1
S        8.22058497     -22.97531275      21.79960583        6        1
Ga       6.13185867     -23.07082248      18.20936793        3        1
Ga       6.15788576     -23.05471207      20.68997090        4        1
S        5.20738040     -24.91493351      17.11066920        5        1
S        5.22978276     -24.89833913      21.79536584        6        1
Ga       3.14044669     -24.97408078      18.20828747        3        1
Ga       3.16543866     -24.97190355      20.68834196        4        1
S        2.21973990     -26.81683247      17.10807315        5        1
S        2.23927671     -26.81750275      21.79210345        6        1
Ga      68.47040624     -26.87783662      18.20741262        3        1
Ga      68.49209562     -26.88798126      20.68714912        4        1
S       67.55250560     -28.71985981      17.10500257        5        1
S       67.56808218     -28.73607109      21.78923745        6        1
Ga      65.48522025     -28.78615938      18.20655504        3        1
Ga      65.50194276     -28.80672323      20.68626612        4        1
S       64.56807346     -30.62815374      17.10203826        5        1
S       64.58024626     -30.65750331      21.78733869        6        1
Ga      62.50284738     -30.70362118      18.20676856        3        1
Ga      62.51356439     -30.73218290      20.68676795        4        1
S       61.58458408     -32.54679140      17.10117777        5        1
S       61.59445396     -32.58563515      21.78818851        6        1
Ga      59.52354890     -32.63541247      18.21040236        3        1
Ga      59.52717070     -32.66843771      20.69086248        4        1
S       58.60335417     -34.48119257      17.10534655        5        1
S       58.61048917     -34.52430478      21.79400071        6        1
Ga      56.54793579     -34.58559269      18.21947960        3        1
Ga      56.54269802     -34.61831238      20.70026323        4        1
S       55.62607537     -36.43423136      17.11575306        5        1
S       55.62664724     -36.47598791      21.80482371        6        1
Ga      53.57503116     -36.55341351      18.23199337        3        1
Ga      53.55912668     -36.58133693      20.71280214        4        1
S       52.65230302     -38.40336323      17.12810191        5        1
S       52.64020242     -38.43985429      21.81624301        6        1
Ga      50.60176000     -38.53236212      18.24124144        3        1
Ga      50.57422278     -38.55314686      20.72203131        4        1
S       49.67883720     -40.38215677      17.13503006        5        1
S       49.64927774     -40.41122314      21.82205412        6        1
Ga      47.62465663     -40.51434014      18.24189714        3        1
Ga      47.58554834     -40.52785198      20.72295986        4        1
S       46.70091965     -42.36306875      17.13244589        5        1
S       46.65324497     -42.38402301      21.81944743        6        1
Ga      32.88275787      -1.86158575      18.24218550        3        1
Ga      32.91665304      -1.84838059      20.72309057        4        1
S       31.93462004      -3.71825048      17.15612847        5        1
S       31.97288710      -3.68246824      21.84367529        6        1
Ga      29.87470232      -3.85377416      18.25656917        3        1
Ga      29.90754083      -3.82620043      20.73761034        4        1
S       28.93509172      -5.71313560      17.16789884        5        1
S       28.96612706      -5.66361806      21.85442958        6        1
Ga      26.87292169      -5.84823317      18.26158181        3        1
Ga      26.90369401      -5.80575460      20.74294926        4        1
S       25.93996646      -7.70892554      17.16894063        5        1
S       25.96345947      -7.64582483      21.85494760        6        1
Ga      23.87385396      -7.83724627      18.25624653        3        1
Ga      23.90382813      -7.78233008      20.73804650        4        1
S       22.94674434      -9.69912114      17.15939072        5        1
S       22.96592012      -9.62458281      21.84647292        6        1
Ga      20.87766702      -9.81488786      18.24454252        3        1
Ga      20.90812227      -9.75289416      20.72667159        4        1
S       19.95613383     -11.67779342      17.14373945        5        1
S       19.97428355     -11.59712247      21.83335691        6        1
Ga      17.88725325     -11.77904116      18.23120063        3        1
Ga      17.91727272     -11.71609053      20.71350409        4        1
S       16.96876623     -13.64130131      17.12728023        5        1
S       16.98734270     -13.56163479      21.81940005        6        1
Ga      14.90265563     -13.72883316      18.21859537        3        1
Ga      14.93038439     -13.67070731      20.70098450        4        1
S       13.98106913     -15.58727370      17.11403406        5        1
S       14.00192611     -15.51598731      21.80675292        6        1
Ga      11.91801742     -15.66297937      18.20850890        3        1
Ga      11.94407986     -15.61499654      20.69080392        4        1
S       10.98910480     -17.51568847      17.10625688        5        1
S       11.01476597     -17.45852171      21.79737979        6        1
Ga       8.92776197     -17.58229704      18.20282096        3        1
Ga       8.95503771     -17.54821173      20.68470913        4        1
S        7.99341843     -19.43003137      17.10372659        5        1
S        8.02455277     -19.38996364      21.79238014        6        1
Ga       5.93224937     -19.49074433      18.20155705        3        1
Ga       5.96261233     -19.47198366      20.68284956        4        1
S        4.99743492     -21.33544432      17.10458374        5        1
S        5.03221049     -21.31321958      21.79101461        6        1
Ga       2.93550600     -21.39332623      18.20324815        3        1
Ga       2.96835122     -21.38960282      20.68396031        4        1
S        2.00441211     -23.23675753      17.10688575        5        1
S        2.03966332     -23.23190324      21.79175277        6        1
Ga      68.25965589     -23.29473581      18.20649639        3        1
Ga      68.29261516     -23.30486052      20.68673340        4        1
S       67.33431697     -25.13807811      17.10940414        5        1
S       67.36693253     -25.14953051      21.79356056        6        1
Ga      65.27047871     -25.19951128      18.21059978        3        1
Ga      65.30055825     -25.22169839      20.69057884        4        1
S       64.35062848     -27.04351022      17.11177936        5        1
S       64.37865792     -27.06963281      21.79627880        6        1
Ga      62.28704745     -27.11253458      18.21576133        3        1
Ga      62.31138885     -27.14423712      20.69579863        4        1
S       61.37066513     -28.95782378      17.11488986        5        1
S       61.39364307     -28.99593825      21.80075896        6        1
Ga      59.30927723     -29.03908473      18.22325429        3        1
Ga      59.32543770     -29.07672110      20.70365553        4        1
S       58.39396918     -30.88643106      17.12091314        5        1
S       58.41166499     -30.93225410      21.80864043        6        1
Ga      56.33687560     -30.98372539      18.23472924        3        1
Ga      56.34254046     -31.02260469      20.71552930        4        1
S       55.42121302     -32.83338267      17.13177822        5        1
S       55.43119747     -32.88149293      21.82059759        6        1
Ga      53.36873204     -32.94732753      18.24942313        3        1
Ga      53.36177173     -32.98276225      20.73034484        4        1
S       52.45236024     -34.79803308      17.14543323        5        1
S       52.44946671     -34.84393350      21.83380214        6        1
Ga      50.40180732     -34.92493970      18.26204418        3        1
Ga      50.38101640     -34.95419749      20.74289809        4        1
S       49.48462885     -36.77476225      17.15536143        5        1
S       49.46386556     -36.81610633      21.84255091        6        1
Ga      26.69867447      -2.25930584      18.23850343        3        1
Ga      26.72689580      -2.21989999      20.71938455        4        1
S       25.76081965      -4.11774913      17.14561891        5        1
S       25.78488347      -4.05874759      21.83234116        6        1
Ga      23.69825222      -4.24738876      18.23787453        3        1
Ga      23.72470307      -4.19448309      20.71917214        4        1
S       22.76547348      -6.10686483      17.14065897        5        1
S       22.78403243      -6.03535549      21.82813605        6        1
Ga      20.69917464      -6.22459637      18.22964253        3        1
Ga      20.72575965      -6.16351581      20.71144184        4        1
S       19.77071297      -8.08483514      17.12860234        5        1
S       19.78834742      -8.00604063      21.81862037        6        1
Ga      17.70324563      -8.18737320      18.21917159        3        1
Ga      17.73083232      -8.12518957      20.70133409        4        1
S       16.77869037     -10.04780447      17.11505102        5        1
S       16.79802059      -9.96936350      21.80798601        6        1
Ga      14.71327634     -10.13660289      18.20957764        3        1
Ga      14.74055005     -10.07925979      20.69190315        4        1
S       13.78950311     -11.99530362      17.10361935        5        1
S       13.81119550     -11.92443187      21.79807860        6        1
Ga      11.72750598     -12.07314833      18.20139319        3        1
Ga      11.75327655     -12.02508991      20.68375354        4        1
S       10.79871590     -13.92739240      17.09612797        5        1
S       10.82433789     -13.86953974      21.78989348        6        1
Ga       8.73934743     -13.99680326      18.19564010        3        1
Ga       8.76517716     -13.96145630      20.67784284        4        1
S        7.80281807     -15.84557934      17.09323512        5        1
S        7.83442950     -15.80376646      21.78491906        6        1
Ga       5.74453509     -15.90895493      18.19353424        3        1
Ga       5.77337882     -15.88833129      20.67538445        4        1
S        4.80288108     -17.75347453      17.09435520        5        1
S        4.84096952     -17.72868454      21.78374604        6        1
Ga       2.74455087     -17.81319514      18.19503904        3        1
Ga       2.77795659     -17.80782449      20.67643834        4        1
S        1.80265975     -19.65554973      17.09830116        5        1
S        1.84566421     -19.64761430      21.78572604        6        1
Ga      68.06200244     -19.71399096      18.19934067        3        1
Ga      68.09922774     -19.72338201      20.68030209        4        1
S       67.12426457     -21.55614040      17.10407079        5        1
S       67.16927460     -21.56432790      21.79001291        6        1
Ga      65.06468463     -21.61602968      18.20593300        3        1
Ga      65.10319437     -21.63900826      20.68654832        4        1
S       64.13392685     -23.45955543      17.11111079        5        1
S       64.17747673     -23.48266040      21.79631097        6        1
Ga      62.07398483     -23.52472070      18.21492295        3        1
Ga      62.11013057     -23.55904124      20.69540400        4        1
S       61.15084949     -25.37064346      17.11957296        5        1
S       61.18986423     -25.40659657      21.80507989        6        1
Ga      59.09150283     -25.44612051      18.22707183        3        1
Ga      59.12117005     -25.48801500      20.70773042        4        1
S       58.17424385     -27.29491762      17.13052649        5        1
S       58.20662606     -27.34019838      21.81728634        6        1
Ga      56.11715797     -27.38569091      18.24342416        3        1
Ga      56.13649511     -27.42996526      20.72440007        4        1
S       55.20296903     -29.23702911      17.14544461        5        1
S       55.22648977     -29.28685290      21.83332913        6        1
Ga      53.14922212     -29.34532168      18.26327152        3        1
Ga      53.15536323     -29.38679110      20.74433957        4        1
S       52.23623662     -31.19783997      17.16323989        5        1
S       52.24686276     -31.24772109      21.85084672        6        1
Ga      20.53658521      -2.62826124      18.21933642        3        1
Ga      20.55557789      -2.57192265      20.70045661        4        1
S       19.60302594      -4.48605271      17.11820671        5        1
S       19.61485178      -4.41393680      21.80681094        6        1
Ga      17.53706345      -4.59221971      18.21048693        3        1
Ga      17.55677904      -4.53321194      20.69219584        4        1
S       16.60592060      -6.44970922      17.10639918        5        1
S       16.61949679      -6.37613627      21.79830314        6        1
Ga      14.54023590      -6.54190563      18.20218766        3        1
Ga      14.56147771      -6.48699630      20.68431884        4        1
S       13.61114323      -8.39855290      17.09610760        5        1
S       13.62837589      -8.33095006      21.79068927        6        1
Ga      11.54821058      -8.48011816      18.19576956        3        1
Ga      11.57004247      -8.43375170      20.67807802        4        1
S       10.61800955     -10.33414722      17.08893731        5        1
S       10.63937363     -10.27803479      21.78429157        6        1
Ga       8.55823953     -10.40786870      18.19085015        3        1
Ga       8.58032354     -10.37299521      20.67316714        4        1
S        7.62223756     -12.25721318      17.08523255        5        1
S        7.64907679     -12.21598590      21.77954552        6        1
Ga       5.56450217     -12.32508000      18.18798534        3        1
Ga       5.58866765     -12.30381841      20.67015561        4        1
S        4.62123045     -14.16940243      17.08503981        5        1
S        4.65514828     -14.14445617      21.77752579        6        1
Ga       2.56427871     -14.23316303      18.18805717        3        1
Ga       2.59296456     -14.22668330      20.66996744        4        1
S        1.61642545     -16.07393674      17.08807155        5        1
S        1.65785690     -16.06543340      21.77872191        6        1
Ga      67.87787612     -16.13553832      18.19129294        3        1
Ga      67.91216219     -16.14403693      20.67289723        4        1
S       66.92986272     -17.97497879      17.09392954        5        1
S       66.97766638     -17.98239481      21.78297254        6        1
Ga      64.87306648     -18.03663665      18.19762209        3        1
Ga      64.91213973     -18.05960835      20.67894145        4        1
S       63.92923229     -19.87698525      17.10251615        5        1
S       63.98086908     -19.89935120      21.79026836        6        1
Ga      61.87261720     -19.94183944      18.20746727        3        1
Ga      61.91383669     -19.97780161      20.68860345        4        1
S       60.93635275     -21.78517777      17.11426271        5        1
S       60.98808289     -21.82061545      21.80119635        6        1
Ga      58.88026077     -21.85787628      18.22189700        3        1
Ga      58.91937624     -21.90348510      20.70306545        4        1
S       57.95304335     -23.70564426      17.12997748        5        1
S       58.00051130     -23.75072005      21.81685560        6        1
Ga      55.89806132     -23.79181960      18.24217507        3        1
Ga      55.92988339     -23.84133549      20.72354807        4        1
S       54.97855622     -25.64385337      17.15048936        5        1
S       55.01752415     -25.69377355      21.83762334        6        1
Ga      14.38277178      -2.94506017      18.19774628        3        1
Ga      14.39381965      -2.89432032      20.67950397        4        1
S       13.44811157      -4.79892571      17.09182284        5        1
S       13.45552632      -4.73710985      21.78493951        6        1
Ga      11.38336706      -4.88573145      18.19145849        3        1
Ga      11.39677952      -4.84227655      20.67361613        4        1
S       10.44905348      -6.73779425      17.08433219        5        1
S       10.46171150      -6.68533841      21.77974927        6        1
Ga       8.38714060      -6.81728803      18.18727196        3        1
Ga       8.40245266      -6.78407431      20.66959835        4        1
S        7.45022872      -8.66593760      17.07997139        5        1
S        7.46865906      -8.62666519      21.77586212        6        1
Ga       5.39096824      -8.73994017      18.18454801        3        1
Ga       5.40848335      -8.71902082      20.66687407        4        1
S        4.44807107     -10.58376927      17.07849478        5        1
S        4.47346346     -10.55983396      21.77350793        6        1
Ga       2.39043001     -10.65347614      18.18365566        3        1
Ga       2.41183835     -10.64639378      20.66587792        4        1
S        1.44107558     -12.49271273      17.07986380        5        1
S        1.47467304     -12.48488366      21.77354166        6        1
Ga      67.70247967     -12.55958016      18.18536923        3        1
Ga      67.72957222     -12.56712267      20.66742965        4        1
S       66.74922001     -14.39596894      17.08422507        5        1
S       66.79146467     -14.40407371      21.77655984        6        1
Ga      64.69297544     -14.46191299      18.19023920        3        1
Ga      64.72640597     -14.48413716      20.67211298        4        1
S       63.73973750     -16.29783583      17.09183811        5        1
S       63.78982996     -16.32112488      21.78292571        6        1
Ga      61.68431799     -16.36547556      18.19884218        3        1
Ga      61.72314117     -16.40163166      20.68057903        4        1
S       60.73525273     -18.20360316      17.10351845        5        1
S       60.79092009     -18.24043411      21.79347602        6        1
Ga      58.68106877     -18.27686969      18.21256405        3        1
Ga      58.72244745     -18.32458009      20.69428673        4        1
S       57.73988806     -20.11993484      17.12082862        5        1
S       57.79695866     -20.16686462      21.80971092        6        1
Ga       8.22848503      -3.22619633      18.18495295        3        1
Ga       8.23359110      -3.19566101      20.66719285        4        1
S        7.28851766      -5.07301354      17.07710913        5        1
S        7.29505397      -5.03708015      21.77313503        6        1
Ga       5.22649292      -5.15462753      18.18232185        3        1
Ga       5.23480869      -5.13478469      20.66469329        4        1
S        4.28267026      -6.99709845      17.07456551        5        1
S        4.29645152      -6.97492091      21.77100925        6        1
Ga       2.22272635      -7.07472494      18.18115569        3        1
Ga       2.23505643      -7.06730253      20.66352433        4        1
S        1.27300873      -8.91219006      17.07455671        5        1
S        1.29523449      -8.90532043      21.77045464        6        1
Ga      67.53264842      -8.98652726      18.18188512        3        1
Ga      67.55048690      -8.99277945      20.66419531        4        1
S       66.57744050     -10.81986845      17.07723796        5        1
S       66.60916122     -10.82873077      21.77227822        6        1
Ga      64.51974050     -10.89240601      18.18528244        3        1
Ga      64.54438801     -10.91287145      20.66751154        4        1
S       63.56157606     -12.72366499      17.08304808        5        1
S       63.60322004     -12.74785439      21.77718704        6        1
Ga      61.50498151     -12.79667411      18.19212613        3        1
Ga      61.53671004     -12.83114228      20.67426966        4        1
S       60.54735843     -14.62858527      17.09288010        5        1
S       60.59834410     -14.66679548      21.78605627        6        1
Ga       2.06364550      -3.49688899      18.18002771        3        1
Ga       2.06469219      -3.48954201      20.66243987        4        1
S        1.11254975      -5.33225179      17.07186765        5        1
S        1.12071407      -5.32661872      21.76878483        6        1
Ga      67.36930229      -5.41598103      18.18007712        3        1
Ga      67.37615708      -5.42071266      20.66248283        4        1
S       66.41269326      -7.24633341      17.07320086        5        1
S       66.43087952      -7.25552896      21.76975731        6        1
Ga      64.35218066      -7.32761509      18.18231530        3        1
Ga      64.36628274      -7.34533521      20.66468253        4        1
S       63.39131257      -9.15449182      17.07732420        5        1
S       63.42050451      -9.17852655      21.77331645        6        1
Ga      67.21473714      -1.84660218      18.17976928        3        1
Ga      67.20864571      -1.85012388      20.66218073        4        1
S       66.25624393      -3.67426850      17.07168526        5        1
S       66.25851875      -3.68381366      21.76855018        6        1
