301
Lattice="156.85845094282251 -4.6e-13 0.0 1.88338162553592 -3.04871336447944 0.0 0.0 0.0 24.0" Properties=species:S:1:pos:R:3:initial_magmoms:R:1 pbc="T T T"
Hf      -0.05133115      -0.01441461      12.61285813       0.00000000
S      155.04706559      -1.09393391      14.07819186       0.00000000
S      156.86818906      -2.08174829      11.15554925       0.00000000
Hf     153.22474768      -0.11118606      12.61692603       0.00000000
S      151.46221464      -1.19129176      14.08052282       0.00000000
S      153.28428022      -2.17881247      11.15993009       0.00000000
Hf     149.63753845      -0.20652585      12.61983598       0.00000000
S      147.87772067      -1.29408405      14.08195812       0.00000000
S      149.69828855      -2.27766346      11.16257206       0.00000000
Hf     146.05578359      -0.31469868      12.62100444       0.00000000
S      144.29152961      -1.39666004      14.08420068       0.00000000
S      146.11187690      -2.38250878      11.16577314       0.00000000
Hf     142.46749009      -0.41801233      12.62544877       0.00000000
S      140.69784520      -1.49480369      14.08497171       0.00000000
S      142.52266847      -2.48418006      11.16947360       0.00000000
Hf     138.87068536      -0.51202241      12.62625896       0.00000000
S      137.10022797      -1.59034968      14.08489882       0.00000000
S      138.92698558      -2.58051828      11.17052599       0.00000000
Hf     135.27105517      -0.60505532      12.62599879       0.00000000
S      133.50368235      -1.69095167      14.08244424       0.00000000
S      135.32992832      -2.67630484      11.16948766       0.00000000
Hf     131.67554063      -0.70618650      12.62278593       0.00000000
S      129.91141800      -1.79812968      14.07999505       0.00000000
S      131.73440002      -2.77916275      11.16697107       0.00000000
Hf     128.08690242      -0.82038628      12.62070026       0.00000000
S      126.31663713      -1.90130341      14.07917730       0.00000000
S      128.14014200      -2.88751046      11.16606519       0.00000000
Hf     124.48948585      -0.92245909      12.62151329       0.00000000
S      122.71479406      -1.99756833      14.07856044       0.00000000
S      124.54155885      -2.98919076      11.16685645       0.00000000
Hf     120.88522007      -1.01574499      12.62111542       0.00000000
S      119.10856648      -2.08826951      14.07932277       0.00000000
S      120.93623649      -3.08404139      11.16772626       0.00000000
Hf     117.27660966      -1.10531512      12.62306377       0.00000000
S      115.49740729      -2.17684381      14.08001800       0.00000000
S      117.32661303      -3.17461714      11.17012151       0.00000000
Hf     113.66401375      -1.19382438      12.62411093       0.00000000
S      111.88064450      -2.26411113      14.07922272       0.00000000
S      113.71165314      -3.26390262      11.17247818       0.00000000
Hf     110.04556072      -1.28208082      12.62474408       0.00000000
S      108.25557267      -2.34605306      14.07932916       0.00000000
S      110.08841410      -3.35223269      11.17542581       0.00000000
Hf     106.41694456      -1.36568616      12.62708376       0.00000000
S      104.62003903      -2.41900231      14.08519841       0.00000000
S      106.45409996      -3.43504091      11.18171051       0.00000000
Hf     102.77433205      -1.43694867      12.63699550       0.00000000
S      100.97896909      -2.48863664      14.09329029       0.00000000
S      100.93390264      -0.45688638      11.18801485       0.00000000
Hf      99.13952731      -1.50803172      12.64255403       0.00000000
S       97.33265121      -2.54462044      14.09304344       0.00000000
S       97.30014605      -0.51812830      11.18868321       0.00000000
Hf      95.49424167      -1.55290447      12.63717871       0.00000000
S       93.68800701      -2.58854031      14.09155380       0.00000000
S       93.65867706      -0.56646015      11.18436913       0.00000000
Hf      91.85430941      -1.60105399      12.63631630       0.00000000
S       90.03325402      -2.62251958      14.07974292       0.00000000
S       90.01945557      -0.60319752      11.17722224       0.00000000
Hf      88.20150438      -1.62419158      12.61765997       0.00000000
S       86.38371065      -2.65095231      14.06271993       0.00000000
S       86.37139893      -0.63000115      11.15916861       0.00000000
Hf      84.55476581      -1.65182832      12.60033807       0.00000000
S       82.74031014      -2.67948734      14.04733619       0.00000000
S       82.72789795      -0.65627030      11.14001203       0.00000000
Hf      80.91711127      -1.68229069      12.58325409       0.00000000
S       79.09480080      -2.70297582      14.02202406       0.00000000
S       79.09438091      -0.67799715      11.11708043       0.00000000
Hf      77.27537615      -1.69798298      12.55388323       0.00000000
S       75.45634363      -2.72221510      13.98517137       0.00000000
S       75.46169311      -0.69220595      11.08072577       0.00000000
Hf      73.64029686      -1.71016232      12.50956199       0.00000000
S       71.84050857      -2.73853372      13.96155459       0.00000000
S       71.82607575      -0.71226186      11.04335385       0.00000000
Hf      70.02334267      -1.73585240      12.49275109       0.00000000
S       68.23025332      -2.75620431      13.95445042       0.00000000
S       68.20327714      -0.73617811      11.02827620       0.00000000
Hf      66.40915288      -1.75532035      12.48790764       0.00000000
S       64.62408729      -2.77897750      13.95540873       0.00000000
S       64.58747701      -0.75970555      11.02616918       0.00000000
Hf      62.80089921      -1.78110220      12.49191074       0.00000000
S       61.02686174      -2.81044766      13.96506498       0.00000000
S       60.97876620      -0.78924955      11.03102414       0.00000000
Hf      59.20398363      -1.81802803      12.50246712       0.00000000
S       57.43937859      -2.84593299      13.99057703       0.00000000
S       57.37351076      -0.83029411      11.04992330       0.00000000
Hf      55.61088112      -1.86124502      12.53683611       0.00000000
S       53.84485516      -2.89145001      14.02363284       0.00000000
S       53.77728777      -0.87437460      11.08523816       0.00000000
Hf      52.01389922      -1.90741262      12.57141936       0.00000000
S       48.36361824       0.09920795      14.04512860       0.00000000
S       50.18991457      -0.91855793      11.11166784       0.00000000
Hf      48.42441217      -1.96159676      12.58396074       0.00000000
S       44.77536836       0.03349622      14.05321444       0.00000000
S       46.60363710      -0.97396422      11.12311475       0.00000000
Hf      44.84072665      -2.02973225      12.59076578       0.00000000
S       41.18860823      -0.03724097      14.05741969       0.00000000
S       43.01786041      -1.04131613      11.13048819       0.00000000
Hf      41.25342848      -2.10196087      12.59510279       0.00000000
S       37.60095180      -0.10949049      14.06125500       0.00000000
S       39.43109508      -1.11266322      11.13457823       0.00000000
Hf      37.66506017      -2.17242640      12.59826013       0.00000000
S       34.01540000      -0.18473716      14.06435863       0.00000000
S       35.84487830      -1.18473598      11.13731903       0.00000000
Hf      34.07931765      -2.24556997      12.60053266       0.00000000
S       30.43350751      -0.26691191      14.06567113       0.00000000
S       32.26074157      -1.26147245      11.13978914       0.00000000
Hf      30.49843088      -2.33002447      12.60177900       0.00000000
S       26.85285856      -0.35493807      14.06622846       0.00000000
S       28.67875055      -1.34639178      11.14189600       0.00000000
Hf      26.91841052      -2.42174898      12.60310884       0.00000000
S       23.27015263      -0.44182055      14.06733799       0.00000000
S       25.09728746      -1.43493903      11.14295071       0.00000000
Hf      23.33476204      -2.50752766      12.60397811       0.00000000
S       19.68744079      -0.52871143      14.06822071       0.00000000
S       21.51393816      -1.52132550      11.14404304       0.00000000
Hf      19.75012332      -2.59226124      12.60501061       0.00000000
S       16.10717925      -0.62127151      14.06963988       0.00000000
S       17.93084386      -1.60971173      11.14557235       0.00000000
Hf      16.17137510      -2.68812735      12.60648271       0.00000000
S       12.52587221      -0.71576632      14.07067115       0.00000000
S       14.34907988      -1.70438736      11.14835209       0.00000000
Hf      12.58928941      -2.78500208      12.60913181       0.00000000
S        8.93948794      -0.80859016      14.07197619       0.00000000
S       10.76487361      -1.79964542      11.15128597       0.00000000
Hf       8.99984011      -2.87475402      12.61067716       0.00000000
S        5.35215929      -0.90066886      14.07365500       0.00000000
S        7.17732600      -1.89149109      11.15270956       0.00000000
Hf       5.41152770      -2.96482562      12.61246234       0.00000000
S        1.76958685      -0.99767033      14.07536644       0.00000000
S        3.59221681      -1.98393786      11.15321313       0.00000000
Ga      75.12954415      -1.05488187      18.18674849       0.00000000
Ga      75.08841272      -1.07812173      20.63110723       0.00000000
S       76.95682576      -2.02261038      17.09364435       0.00000000
S       76.90531081      -2.05225079      21.72941991       0.00000000
Ga      71.61367080      -1.30235696      18.17571486       0.00000000
Ga      71.57750907      -1.31724136      20.62029552       0.00000000
S       73.43782778      -2.25731165      17.08471264       0.00000000
S       73.39238225      -2.28253054      21.71766866       0.00000000
Ga      68.03136006      -1.49324049      18.17333452       0.00000000
Ga      68.02161990      -1.49575623      20.61564822       0.00000000
S       69.86924360      -2.44948862      17.09106957       0.00000000
S       69.84463213      -2.46545261      21.70730272       0.00000000
Ga      64.47213846      -1.66766473      18.17535612       0.00000000
Ga      64.46884852      -1.66758155      20.62112247       0.00000000
S       66.29843853      -2.63304280      17.07751797       0.00000000
S       66.28937364      -2.63822320      21.71531484       0.00000000
Ga      60.91452733      -1.84818603      18.16567703       0.00000000
Ga      60.91380297      -1.84507855      20.60769572       0.00000000
S       62.74257006      -2.81399182      17.07426332       0.00000000
S       62.73288402      -2.81583245      21.70445518       0.00000000
Ga      57.36049080      -2.04323660      18.17628939       0.00000000
Ga      57.35725242      -2.01340878      20.62108285       0.00000000
S       59.18587943      -3.00735198      17.08039161       0.00000000
S       59.18269018      -2.98396962      21.71015640       0.00000000
Ga      53.80129761      -2.18053159      18.18186587       0.00000000
Ga      53.79850311      -2.17540480      20.62706291       0.00000000
S       55.61887722      -3.15949511      17.07636624       0.00000000
S       55.62042067      -3.14775355      21.72036626       0.00000000
Ga      50.24013346      -2.34624845      18.18442676       0.00000000
Ga      50.20907609      -2.32075359      20.62625779       0.00000000
S       50.17732377      -0.26835022      17.08784503       0.00000000
S       50.15981319      -0.24450663      21.71442822       0.00000000
Ga      46.64382738      -2.48745914      18.18435110       0.00000000
Ga      46.64247371      -2.48145766      20.62824337       0.00000000
S       46.59397685      -0.41115980      17.09614091       0.00000000
S       46.58749052      -0.40135324      21.72032294       0.00000000
Ga      43.08177139      -2.64306321      18.18566301       0.00000000
Ga      43.08081515      -2.60938949      20.63004316       0.00000000
S       43.02019165      -0.56716356      17.08702360       0.00000000
S       43.01413395      -0.54034360      21.73329912       0.00000000
Ga      39.47942730      -2.74538185      18.18621537       0.00000000
Ga      39.48157217      -2.73670596      20.62995499       0.00000000
S       39.42717049      -0.67451979      17.09285877       0.00000000
S       39.43077747      -0.66083465      21.71755765       0.00000000
Ga      35.91782309      -2.89577456      18.18511238       0.00000000
Ga      35.91688499      -2.85913791      20.62974411       0.00000000
S       35.85595788      -0.82276876      17.08582987       0.00000000
S       35.85058805      -0.79343533      21.73315679       0.00000000
Ga      32.31442479      -2.99854716      18.18599502       0.00000000
Ga      32.31752485      -2.98919768      20.62962816       0.00000000
S       32.26235704      -0.92793688      17.09237132       0.00000000
S       32.26710740      -0.91314954      21.71621081       0.00000000
Ga      28.75533845      -3.15174892      18.18436881       0.00000000
Ga      28.75458493      -3.11447830      20.62925077       0.00000000
S       28.69314080      -1.07786962      17.08450852       0.00000000
S       28.68798947      -1.04848101      21.73210083       0.00000000
Ga      23.26851426      -0.20238586      18.18905616       0.00000000
Ga      23.27326442      -0.19465373      20.63257888       0.00000000
S       25.09854476      -1.18226445      17.09391132       0.00000000
S       25.10383732      -1.16450602      21.71858018       0.00000000
Ga      19.71317320      -0.35940485      18.18538186       0.00000000
Ga      19.71133544      -0.32244451      20.63132580       0.00000000
S       21.53530457      -1.33265726      17.08657395       0.00000000
S       21.52851091      -1.30490929      21.73386613       0.00000000
Ga      16.15240527      -0.48202933      18.18543388       0.00000000
Ga      16.15368973      -0.47733930      20.63045631       0.00000000
S       17.96927991      -1.46484305      17.07963960       0.00000000
S       17.97249947      -1.45358961      21.72707701       0.00000000
Ga      12.55166526      -0.57356372      18.18517171       0.00000000
Ga      12.55238800      -0.57205110      20.62916505       0.00000000
S       14.37736096      -1.55552056      17.08778634       0.00000000
S       14.38020412      -1.55194237      21.72326846       0.00000000
Ga       8.99177050      -0.72857059      18.18362307       0.00000000
Ga       8.99243301      -0.72869416      20.62789455       0.00000000
S       10.81378216      -1.70516123      17.08648962       0.00000000
S       10.81603906      -1.70166093      21.72427616       0.00000000
Ga       5.39412456      -0.82300429      18.18935118       0.00000000
Ga       5.39381361      -0.82166232      20.63430343       0.00000000
S        7.21835214      -1.80329516      17.09130639       0.00000000
S        7.22312966      -1.79995735      21.72729627       0.00000000
Ga       1.86652103      -0.96204034      18.19356833       0.00000000
Ga       1.87095681      -0.96041425      20.63880809       0.00000000
S        3.66875498      -1.94913054      17.08271440       0.00000000
S        3.67377360      -1.94419939      21.75105846       0.00000000
Ga     155.13181425      -1.05088477      18.19172237       0.00000000
Ga     155.13459652      -1.04804578      20.63518984       0.00000000
S      156.95172790      -2.03281656      17.09374218       0.00000000
S      156.95625826      -2.03087361      21.73194596       0.00000000
Ga     151.57307588      -1.18562122      18.21465364       0.00000000
Ga     151.57583455      -1.18096966      20.65900796       0.00000000
S      153.38360991      -2.16831622      17.10390235       0.00000000
S      153.39797311      -2.15703056      21.75124434       0.00000000
Ga     147.98950586      -1.30669536      18.21045716       0.00000000
Ga     148.00239493      -1.31448721      20.65423348       0.00000000
S      149.81486887      -2.28366016      17.11622730       0.00000000
S      149.82325219      -2.28876366      21.75065270       0.00000000
Ga     144.41663570      -1.41814216      18.19811165       0.00000000
Ga     144.41874137      -1.41581304      20.64285580       0.00000000
S      146.23757016      -2.39845270      17.10089121       0.00000000
S      146.23809607      -2.39886382      21.74614848       0.00000000
Ga     140.86819382      -1.56904365      18.21011153       0.00000000
Ga     140.86952545      -1.56937003      20.65469070       0.00000000
S      142.68046557      -2.54788110      17.10659196       0.00000000
S      142.69061363      -2.54197940      21.75144703       0.00000000
Ga     137.29361189      -1.64691085      18.20547352       0.00000000
Ga     137.29971780      -1.64403703      20.65011488       0.00000000
S      139.10474599      -2.63312353      17.10156284       0.00000000
S      139.10747448      -2.63213794      21.75887303       0.00000000
Ga     133.74142403      -1.78011570      18.22770679       0.00000000
Ga     133.74554894      -1.77845510      20.67087443       0.00000000
S      135.54862960      -2.76346278      17.11636286       0.00000000
S      135.56335718      -2.75582024      21.76326777       0.00000000
Ga     130.16782732      -1.90453399      18.21426257       0.00000000
Ga     130.18504815      -1.91376000      20.65459225       0.00000000
S      130.10606210       0.16738018      17.12098246       0.00000000
S      130.11474953       0.15745847      21.75822139       0.00000000
Ga     126.59096687      -2.01672729      18.22440282       0.00000000
Ga     126.59499075      -2.00588787      20.66455796       0.00000000
S      126.52337045       0.05367916      17.12306376       0.00000000
S      126.53797124       0.06134446      21.75858717       0.00000000
Ga     123.05314925      -2.15379077      18.22618754       0.00000000
Ga     123.06401315      -2.15129834      20.66980504       0.00000000
S      122.97609305      -0.08653222      17.11815665       0.00000000
S      122.99038739      -0.08251348      21.77355917       0.00000000
Ga     119.49541604      -2.25019137      18.23565201       0.00000000
Ga     119.51740602      -2.27428675      20.67829757       0.00000000
S      119.41667127      -0.19146153      17.12376829       0.00000000
S      119.44273169      -0.20576300      21.78010012       0.00000000
Ga     115.92223833      -2.37456117      18.23840166       0.00000000
Ga     115.93884002      -2.39994036      20.67893397       0.00000000
S      115.85860263      -0.30580233      17.14215631       0.00000000
S      115.88022246      -0.32597337      21.76998342       0.00000000
Ga     112.37760461      -2.50733048      18.24479362       0.00000000
Ga     112.38334249      -2.50545605      20.68804041       0.00000000
S      112.29997637      -0.43951919      17.13719344       0.00000000
S      112.31503489      -0.44190822      21.79066021       0.00000000
Ga     108.84876618      -2.65156597      18.25948620       0.00000000
Ga     108.85388594      -2.64598726      20.70113637       0.00000000
S      108.76546766      -0.58591575      17.14888464       0.00000000
S      108.78000842      -0.57695532      21.80273338       0.00000000
Ga     103.41863138       0.27027177      18.27532603       0.00000000
Ga     103.42236114       0.26538909      20.71461731       0.00000000
S      105.22285473      -0.71451816      17.16621766       0.00000000
S      105.23755044      -0.71173917      21.81069128       0.00000000
Ga      99.86947314       0.11505021      18.29375758       0.00000000
Ga      99.87290549       0.11278325      20.73674438       0.00000000
S      101.68265160      -0.86342925      17.19153391       0.00000000
S      101.69606928      -0.85732031      21.82575261       0.00000000
Ga      96.35402683      -0.03092480      18.29813117       0.00000000
Ga      96.35650573      -0.03279261      20.74288162       0.00000000
S       98.15380696      -1.01818583      17.18468013       0.00000000
S       98.15790506      -1.01574677      21.85453125       0.00000000
Ga      92.80748828      -0.19908544      18.29926256       0.00000000
Ga      92.80559244      -0.19952492      20.74042483       0.00000000
S       94.62736402      -1.17272179      17.20528432       0.00000000
S       94.62325601      -1.17297967      21.83475864       0.00000000
Ga      89.26416245      -0.36899662      18.29501310       0.00000000
Ga      89.25576956      -0.36837529      20.73754946       0.00000000
S       91.08930152      -1.34285666      17.20036033       0.00000000
S       91.07388493      -1.34277284      21.83485779       0.00000000
Ga      85.75187452      -0.56437740      18.27460366       0.00000000
Ga      85.72764785      -0.55492548      20.71402333       0.00000000
S       87.57322860      -1.53327661      17.17778454       0.00000000
S       87.53361956      -1.53412477      21.82074020       0.00000000
Ga      82.21429600      -0.72384092      18.24325398       0.00000000
Ga      82.19017380      -0.74224052      20.68451626       0.00000000
S       84.04172251      -1.69327055      17.15518152       0.00000000
S       83.99674772      -1.71765832      21.78916485       0.00000000
Ga      78.67888029      -0.88391669      18.20344282       0.00000000
Ga      78.64080456      -0.90496469      20.64640328       0.00000000
S       80.50475268      -1.85144406      17.11542899       0.00000000
S       80.44710401      -1.88461765      21.75705609       0.00000000
