301
Lattice="156.85845094282251 -4.578559753554146e-13 0.0 1.8833816255359181 -3.0487133644794406 0.0 0.0 0.0 32.94961446999999" Properties=species:S:1:pos:R:3:atom_types:I:1:layer_id:I:1 vacuum=20 Rs_xtal_0="[-43   1  43   0]" Rs_cart_0="[-156.2332 3.1093 154.4374 0.0006]" base_lattice_0="[3.5916 0.0000 -1.7958 3.1098]" twist_0="[0.0000]" Rs_xtal_1="[-43   2  43  -1]" Rs_cart_1="[-157.4146 3.4756 155.5724 -0.4103]" base_lattice_1="[3.5751 0.0617 -1.8422 3.0653]" twist_1="[0.0174]" pbc="T T T"
Hf      -0.05023217      -0.01607262      12.60218800        0        0
S      155.04522631      -1.09575555      14.09415482        1        0
S      156.86762909      -2.08409779      11.11694770        2        0
Hf     153.22199877      -0.11365061      12.60615552        0        0
S      151.45795291      -1.19373243      14.09732975        1        0
S      153.28088648      -2.18188971      11.12115027        2        0
Hf     149.63469284      -0.21208657      12.60956397        0        0
S      147.86932305      -1.29239393      14.09977841        1        0
S      149.69309378      -2.28044955      11.12478556        2        0
Hf     146.04613414      -0.31110369      12.61224744        0        0
S      144.27922060      -1.39161447      14.10132780        1        0
S      146.10406697      -2.37958395      11.12762048        2        0
Hf     142.45617508      -0.41062476      12.61397228        0        0
S      140.68756520      -1.49109426      14.10197446        1        0
S      142.51352624      -2.47923704      11.12957658        2        0
Hf     138.86459807      -0.51043258      12.61489445        0        0
S      137.09416129      -1.59068487      14.10181482        1        0
S      138.92125194      -2.57917954      11.13078332        2        0
Hf     135.27120105      -0.61032908      12.61506687        0        0
S      133.49889990      -1.69025377      14.10099993        1        0
S      135.32702063      -2.67929633      11.13135328        2        0
Hf     131.67589917      -0.71032501      12.61467662        0        0
S      129.90170538      -1.78953742      14.09996110        1        0
S      131.73056891      -2.77957663      11.13159944        2        0
Hf     128.07835143      -0.81008592      12.61429705        0        0
S      126.30206154      -1.88828462      14.09888931        1        0
S      128.13170907      -2.87967568      11.13191638        2        0
Hf     124.47819110      -0.90931531      12.61395426        0        0
S      122.69975533      -1.98599222      14.09813448        1        0
S      124.52994725      -2.97930094      11.13250904        2        0
Hf     120.87505399      -1.00755883      12.61418999        0        0
S      119.09419757      -2.08223443      14.09803769        1        0
S      120.92490411      -3.07799045      11.13382114        2        0
Hf     117.26827385      -1.10427354      12.61524054        0        0
S      115.48463441      -2.17605806      14.09889044        1        0
S      117.31597492      -3.17510794      11.13612489        2        0
Hf     113.65706863      -1.19841137      12.61740859        0        0
S      111.87000194      -2.26629613      14.10073257        1        0
S      113.70239114      -3.26951416      11.13964234        2        0
Hf     110.04026303      -1.28872092      12.62069407        0        0
S      108.24902273      -2.35147765      14.10344558        1        0
S      110.08324562      -3.35982979      11.14422831        2        0
Hf     106.41668421      -1.37354092      12.62484494        0        0
S      104.62027858      -2.42951551      14.10664582        1        0
S      106.45760375      -3.44409937      11.14946443        2        0
Hf     102.78493713      -1.45050457      12.62929641        0        0
S      100.98228115      -2.49826787      14.10917452        1        0
S      100.94146725      -0.47103616      11.15422571        2        0
Hf      99.14419587      -1.51723870      12.63238873        0        0
S       97.33511592      -2.55594502      14.10978454        1        0
S       97.30145413      -0.53555510      11.15656051        2        0
Hf      95.49532537      -1.57186079      12.63246960        0        0
S       93.68056302      -2.60186082      14.10712465        1        0
S       93.65566098      -0.58706963      11.15447810        2        0
Hf      91.84115409      -1.61364947      12.62761150        0        0
S       90.02277114      -2.63690522      14.09992332        1        0
S       90.00719463      -0.62505205      11.14599379        2        0
Hf      88.18676041      -1.64377386      12.61624060        0        0
S       86.36707073      -2.66309339      14.08669231        1        0
S       86.36042986      -0.65099948      11.12986251        2        0
Hf      84.53728156      -1.66473320      12.59725342        0        0
S       82.71854149      -2.68289112      14.06626957        1        0
S       82.71896529      -0.66815192      11.10588330        2        0
Hf      80.89635745      -1.68008068      12.57107811        0        0
S       79.08067603      -2.69879086      14.03993213        1        0
S       79.08387220      -0.68098224      11.07600799        2        0
Hf      77.26465371      -1.69357367      12.54124091        0        0
S       75.45396065      -2.71294711      14.01276767        1        0
S       75.45414567      -0.69390082      11.04504289        2        0
Hf      73.64061915      -1.70782531      12.51405385        0        0
S       71.83669963      -2.72791157      13.99158159        1        0
S       71.82846098      -0.70957017      11.01926117        2        0
Hf      70.02242843      -1.72467305      12.49553882        0        0
S       68.22695355      -2.74613970      13.98173342        1        0
S       68.20651755      -0.72935669      11.00397246        2        0
Hf      66.40913933      -1.74556656      12.48959355        0        0
S       64.62305474      -2.77023021      13.98501426        1        0
S       64.58926253      -0.75393367      11.00175250        2        0
Hf      62.80087512      -1.77225155      12.49659104        0        0
S       61.02349087      -2.80255549      13.99889938        1        0
S       60.97846785      -0.78398522      11.01138487        2        0
Hf      59.19812939      -1.80652701      12.51258113        0        0
S       57.42747408      -2.84436212      14.01800653        1        0
S       57.37509798      -0.82056549      11.02836294        2        0
Hf      55.60088048      -1.84940820      12.53199808        0        0
S       53.83450858      -2.89558872      14.03701131        1        0
S       53.77873026      -0.86453350      11.04729294        2        0
Hf      52.00848283      -1.90107721      12.54997320        0        0
S       48.36094111       0.09371327      14.05254386        1        0
S       50.18792772      -0.91642264      11.06401229        2        0
Hf      48.41991371      -1.96065269      12.56392528        0        0
S       44.77331312       0.02774597      14.06359379        1        0
S       46.60085095      -0.97582194      11.07664502        2        0
Hf      44.83401453      -2.02678633      12.57349854        0        0
S       41.18775864      -0.04335549      14.07058395        1        0
S       43.01604413      -1.04176483      11.08517890        2        0
Hf      41.24983326      -2.09827906      12.57939168        0        0
S       37.60357049      -0.11842510      14.07442446        1        0
S       39.43248254      -1.11317296      11.09037905        2        0
Hf      37.66660352      -2.17399587      12.58256457        0        0
S       34.02035722      -0.19682291      14.07612607        1        0
S       35.84945516      -1.18893967      11.09317484        2        0
Hf      34.08394074      -2.25324609      12.58391661        0        0
S       30.43772674      -0.27784229      14.07665137        1        0
S       32.26660091      -1.26837266      11.09448319        2        0
Hf      30.50142972      -2.33522228      12.58442276        0        0
S       26.85539038      -0.36129944      14.07663654        1        0
S       28.68370464      -1.35071850      11.09513988        2        0
Hf      26.91900255      -2.41986243      12.58457090        0        0
S       23.27313652      -0.44690569      14.07661700        1        0
S       25.10062572      -1.43577570      11.09566973        2        0
Hf      23.33640091      -2.50668834      12.58495223        0        0
S       19.69078258      -0.53456533      14.07698565        1        0
S       21.51727226      -1.52309474      11.09647959        2        0
Hf      19.75359585      -2.59553529      12.58576383        0        0
S       16.10830992      -0.62403476      14.07818525        1        0
S       17.93353432      -1.61254956      11.09796151        2        0
Hf      16.17048604      -2.68626357      12.58763410        0        0
S       12.52537332      -0.71535971      14.08023220        1        0
S       14.34952344      -1.70385934      11.10046096        2        0
Hf      12.58696290      -2.77872279      12.59030358        0        0
S        8.94199300      -0.80835138      14.08311961        1        0
S       10.76511730      -1.79689054      11.10372953        2        0
Hf       9.00304405      -2.87277657      12.59381037        0        0
S        5.35790852      -0.90284859      14.08669152        1        0
S        7.18032742      -1.89143442      11.10781883        2        0
Hf       5.41846458      -2.96816371      12.59794994        0        0
S        1.77288374      -0.99874781      14.09050915        1        0
S        3.59507113      -1.98721212      11.11239121        2        0
Ga      75.13926990      -1.08627671      18.17163278        3        1
Ga      75.12105763      -1.09477695      20.65323710        4        1
S       76.96712440      -2.04297885      17.08073411        5        1
S       76.93545711      -2.06962523      21.76278070        6        1
Ga      71.59506364      -1.28768598      18.15711962        3        1
Ga      71.57816993      -1.28711985      20.63865675        4        1
S       73.42326261      -2.24307644      17.06519081        5        1
S       73.39684832      -2.25912100      21.74422358        6        1
Ga      68.04542790      -1.48890336      18.15025819        3        1
Ga      68.03098956      -1.47766351      20.63172479        4        1
S       69.87390620      -2.44535462      17.05753352        5        1
S       69.85333495      -2.44767063      21.73426336        6        1
Ga      64.49020195      -1.68463892      18.14853590        3        1
Ga      64.47859953      -1.66296168      20.62999610        4        1
S       66.31888356      -2.64489861      17.05501987        5        1
S       66.30362803      -2.63203956      21.73061498        6        1
Ga      60.92908679      -1.87009412      18.15031357        3        1
Ga      60.92048913      -1.84035293      20.63168700        4        1
S       62.75769447      -2.83598687      17.05542947        5        1
S       62.74736458      -2.80938008      21.73126470        6        1
Ga      57.36221163      -2.04267986      18.15462755        3        1
Ga      57.35668677      -2.00851079      20.63597798        4        1
S       59.19030190      -3.01435676      17.05791992        5        1
S       59.18483803      -2.97802798      21.73488994        6        1
Ga      53.79036839      -2.20272772      18.16037429        3        1
Ga      53.78788641      -2.16746569      20.64182357        4        1
S       55.61774731      -3.17907108      17.06199222        5        1
S       55.61672750      -3.13782587      21.74046888        6        1
Ga      50.21497662      -2.35232519      18.16627715        3        1
Ga      50.21518425      -2.31833546      20.64800683        4        1
S       50.15821765      -0.28319161      17.06670182        5        1
S       50.16074226      -0.24102874      21.74672586        6        1
Ga      46.63753651      -2.49416117      18.17130626        3        1
Ga      46.63976834      -2.46265455      20.65326376        4        1
S       46.58010288      -0.42693682      17.07089758        5        1
S       46.58490116      -0.38649109      21.75250768        6        1
Ga      43.05904349      -2.63045239      18.17495469        3        1
Ga      43.06266226      -2.60186118      20.65707952        4        1
S       43.00112183      -0.56421363      17.07389345        5        1
S       43.00709610      -0.52678703      21.75710850        6        1
Ga      39.48029661      -2.76273945      18.17714677        3        1
Ga      39.48475525      -2.73716018      20.65952611        4        1
S       39.42188221      -0.69691237      17.07550835        5        1
S       39.42835251      -0.66307071      21.76030218        6        1
Ga      35.90175360      -2.89212338      18.17808835        3        1
Ga      35.90669986      -2.86943966      20.66081643        4        1
S       35.84283478      -0.82637403      17.07605998        5        1
S       35.84939664      -0.79622289      21.76215040        6        1
Ga      32.32369117      -3.01947259      18.17824225        3        1
Ga      32.32896147      -2.99940823      20.66122634        4        1
S       32.26421312      -0.95357619      17.07577435        5        1
S       32.27078927      -0.92693852      21.76306036        6        1
Ga      28.74624594      -3.14522094      18.17816040        3        1
Ga      28.75179693      -3.12752653      20.66122019        4        1
S       28.68611442      -1.07915281      17.07501797        5        1
S       28.69286645      -1.05566366      21.76349629        6        1
Ga      23.28606282      -0.22098340      18.17823417        3        1
Ga      23.29197059      -0.20541319      20.66128929        4        1
S       25.10859189      -1.20338460      17.07437643        5        1
S       25.11580432      -1.18273470      21.76388859        6        1
Ga      19.71003024      -0.34431594      18.17875070        3        1
Ga      19.71637786      -0.33069535      20.66178615        4        1
S       21.53173330      -1.32651097      17.07408896        5        1
S       21.53967966      -1.30840410      21.76461424        6        1
Ga      16.13479557      -0.46665314      18.17998329        3        1
Ga      16.14169732      -0.45484988      20.66298657        4        1
S       17.95561245      -1.44865382      17.07453703        5        1
S       17.96455520      -1.43286734      21.76593625        6        1
Ga      12.56038080      -0.58803687      18.18199647        3        1
Ga      12.56791190      -0.57798112      20.66489313        4        1
S       14.38025986      -1.56986195      17.07576074        5        1
S       14.39035446      -1.55628207      21.76800092        6        1
Ga       8.98685339      -0.70859634      18.18474188        3        1
Ga       8.99506173      -0.70023893      20.66744860        4        1
S       10.80579909      -1.69025953      17.07772714        5        1
S       10.81709820      -1.67880344      21.77079535        6        1
Ga       5.41426798      -0.82845126      18.18797564        3        1
Ga       5.42319774      -0.82178513      20.67060940        4        1
S        7.23230726      -1.80992585      17.08036994        5        1
S        7.24481548      -1.80060376      21.77413416        6        1
Ga       1.84269845      -0.94767894      18.19143530        3        1
Ga       1.85237787      -0.94270168      20.67411071        4        1
S        3.65982769      -1.92896818      17.08347056        5        1
S        3.67349194      -1.92181349      21.77783010        6        1
Ga     155.13067504      -1.06646453      18.19490485        3        1
Ga     155.14113512      -1.06318816      20.67763732        4        1
S      156.94688158      -2.04751862      17.08673550        5        1
S      156.96164662      -2.04263344      21.78160722        6        1
Ga     151.56129918      -1.18503432      18.19813302        3        1
Ga     151.57257050      -1.18340560      20.68083214        4        1
S      153.37667641      -2.16580985      17.08986093        5        1
S      153.39241985      -2.16320602      21.78519053        6        1
Ga     147.99315528      -1.30348391      18.20082707        3        1
Ga     148.00525181      -1.30351114      20.68349315        4        1
S      149.80767333      -2.28397683      17.09252766        5        1
S      149.82435661      -2.28369517      21.78832505        6        1
Ga     144.42619734      -1.42197934      18.20293464        3        1
Ga     144.43920856      -1.42362993      20.68550164        4        1
S      146.23988762      -2.40215075      17.09467067        5        1
S      146.25755395      -2.40419440      21.79085858        6        1
Ga     140.86050672      -1.54071523      18.20442649        3        1
Ga     140.87449866      -1.54386458      20.68691825        4        1
S      142.67334847      -2.52057344      17.09622783        5        1
S      142.69210097      -2.52478644      21.79278866        6        1
Ga     137.29606617      -1.65974117      18.20542510        3        1
Ga     137.31116324      -1.66427733      20.68789781        4        1
S      139.10801192      -2.63929424      17.09735201        5        1
S      139.12805703      -2.64552230      21.79419373        6        1
Ga     133.73284416      -1.77913655      18.20618366        3        1
Ga     133.74924447      -1.78499204      20.68867880        4        1
S      135.54385077      -2.75843807      17.09828128        5        1
S      135.56550242      -2.76650062      21.79524604        6        1
Ga     130.17090103      -1.89894937      18.20703965        3        1
Ga     130.18878943      -1.90613322      20.68952030        4        1
S      130.09744562       0.17062515      17.09923763        5        1
S      130.12112414       0.16087331      21.79626362        6        1
Ga     126.61036028      -2.01941367      18.20853151        3        1
Ga     126.62987372      -2.02785932      20.69085373        4        1
S      126.53573754       0.05022429      17.10064387        5        1
S      126.56179251       0.03904280      21.79768640        6        1
Ga     123.05130380      -2.14067696      18.21111114        3        1
Ga     123.07260035      -2.15048514      20.69317464        4        1
S      122.97544686      -0.07104368      17.10298315        5        1
S      123.00428378      -0.08355270      21.80000662        6        1
Ga     119.49402089      -2.26310786      18.21526225        3        1
Ga     119.51708147      -2.27443067      20.69706165        4        1
S      119.41683667      -0.19357952      17.10677409        5        1
S      119.44873410      -0.20730541      21.80369126        6        1
Ga     115.93892490      -2.38710990      18.22144502        3        1
Ga     115.96350740      -2.40029550      20.70299343        4        1
S      115.86036237      -0.31780100      17.11253549        5        1
S      115.89532357      -0.33281115      21.80919340        6        1
Ga     112.38663780      -2.51344078      18.23014448        3        1
Ga     112.41204823      -2.52888262      20.71146229        4        1
S      112.30668666      -0.44440000      17.12077969        5        1
S      112.34426312      -0.46083111      21.81696511        6        1
Ga     108.83778028      -2.64320632      18.24144005        3        1
Ga     108.86299022      -2.66121468      20.72254846        4        1
S      108.75673777      -0.57438834      17.13176734        5        1
S      108.79568910      -0.59245929      21.82726048        6        1
Ga     103.40975138       0.27095605      18.25473754        3        1
Ga     103.43303511       0.25029582      20.73554294        4        1
S      105.21161420      -0.70903042      17.14501654        5        1
S      105.24958100      -0.72888296      21.83961476        6        1
Ga      99.86975541       0.13007693      18.26842886        3        1
Ga      99.88901015       0.10710553      20.74884717        4        1
S      101.67234929      -0.84964064      17.15925565        5        1
S      101.70573384      -0.87137245      21.85276109        6        1
Ga      96.33431585      -0.01857970      18.27933968        3        1
Ga      96.34749911      -0.04302472      20.75936113        4        1
S       98.13939723      -0.99733772      17.17175641        5        1
S       98.16371651      -1.02113306      21.86409889        6        1
Ga      92.80262221      -0.17579505      18.28305506        3        1
Ga      92.80820311      -0.20061752      20.76274390        4        1
S       94.61198724      -1.15254208      17.17834349        5        1
S       94.62295139      -1.17888509      21.86960135        6        1
Ga      89.27303391      -0.34165968      18.27541014        3        1
Ga      89.27069180      -0.36581074      20.75508303        4        1
S       91.08785903      -1.31505585      17.17489148        5        1
S       91.08315315      -1.34470595      21.86505540        6        1
Ga      85.74359847      -0.51597955      18.25511087        3        1
Ga      85.73424580      -0.53846148      20.73516244        4        1
S       87.56388060      -1.48484771      17.15931126        5        1
S       87.54447232      -1.51794521      21.84817001        6        1
Ga      82.21248733      -0.69861473      18.22579294        3        1
Ga      82.19792624      -0.71818542      20.70656867        4        1
S       84.03704403      -1.66255180      17.13381983        5        1
S       84.00728702      -1.69742295      21.82094517        6        1
Ga      78.67820537      -0.88902967      18.19539861        3        1
Ga      78.66060648      -0.90419052      20.67681792        4        1
S       80.50509860      -1.84877321      17.10491777        5        1
S       80.47143639      -1.88179489      21.78988226        6        1
