301
Lattice="156.85845094282251 -4.6e-13 0.0 1.88338162553592 -3.04871336447944 0.0 0.0 0.0 24.0" Properties=species:S:1:pos:R:3:initial_magmoms:R:1 pbc="T T T"
Hf       0.00000000       0.00000000      12.80393874       0.00000000
S      155.08530696      -1.06341517      14.25799781       0.00000000
S      156.91451164      -2.05502399      11.35000000       0.00000000
Hf     153.25437956      -0.07090031      12.80393874       0.00000000
S      151.48123558      -1.13431548      14.25799781       0.00000000
S      153.31044026      -2.12592430      11.35000000       0.00000000
Hf     149.65030818      -0.14180062      12.80393874       0.00000000
S      147.87716420      -1.20521580      14.25799781       0.00000000
S      149.70636888      -2.19682461      11.35000000       0.00000000
Hf     146.04623680      -0.21270093      12.80393874       0.00000000
S      144.27309282      -1.27611611      14.25799781       0.00000000
S      146.10229751      -2.26772492      11.35000000       0.00000000
Hf     142.44216542      -0.28360124      12.80393874       0.00000000
S      140.66902144      -1.34701642      14.25799781       0.00000000
S      142.49822613      -2.33862523      11.35000000       0.00000000
Hf     138.83809405      -0.35450155      12.80393874       0.00000000
S      137.06495006      -1.41791673      14.25799781       0.00000000
S      138.89415475      -2.40952554      11.35000000       0.00000000
Hf     135.23402267      -0.42540186      12.80393874       0.00000000
S      133.46087868      -1.48881704      14.25799781       0.00000000
S      135.29008337      -2.48042586      11.35000000       0.00000000
Hf     131.62995129      -0.49630218      12.80393874       0.00000000
S      129.85680730      -1.55971735      14.25799781       0.00000000
S      131.68601199      -2.55132617      11.35000000       0.00000000
Hf     128.02587991      -0.56720249      12.80393874       0.00000000
S      126.25273593      -1.63061766      14.25799781       0.00000000
S      128.08194061      -2.62222648      11.35000000       0.00000000
Hf     124.42180853      -0.63810280      12.80393874       0.00000000
S      122.64866455      -1.70151797      14.25799781       0.00000000
S      124.47786923      -2.69312679      11.35000000       0.00000000
Hf     120.81773715      -0.70900311      12.80393874       0.00000000
S      119.04459317      -1.77241828      14.25799781       0.00000000
S      120.87379785      -2.76402710      11.35000000       0.00000000
Hf     117.21366577      -0.77990342      12.80393874       0.00000000
S      115.44052179      -1.84331859      14.25799781       0.00000000
S      117.26972647      -2.83492741      11.35000000       0.00000000
Hf     113.60959439      -0.85080373      12.80393874       0.00000000
S      111.83645041      -1.91421890      14.25799781       0.00000000
S      113.66565509      -2.90582772      11.35000000       0.00000000
Hf     110.00552301      -0.92170404      12.80393874       0.00000000
S      108.23237903      -1.98511921      14.25799781       0.00000000
S      110.06158371      -2.97672803      11.35000000       0.00000000
Hf     106.40145163      -0.99260435      12.80393874       0.00000000
S      104.62830765      -2.05601952      14.25799781       0.00000000
S      106.45751233      -3.04762834      11.35000000       0.00000000
Hf     102.79738025      -1.06350466      12.80393874       0.00000000
S      101.02423627      -2.12691984      14.25799781       0.00000000
S      100.97005933      -0.06981529      11.35000000       0.00000000
Hf      99.19330887      -1.13440497      12.80393874       0.00000000
S       97.42016489      -2.19782015      14.25799781       0.00000000
S       97.36598795      -0.14071560      11.35000000       0.00000000
Hf      95.58923749      -1.20530528      12.80393874       0.00000000
S       93.81609351      -2.26872046      14.25799781       0.00000000
S       93.76191657      -0.21161591      11.35000000       0.00000000
Hf      91.98516611      -1.27620559      12.80393874       0.00000000
S       90.21202213      -2.33962077      14.25799781       0.00000000
S       90.15784519      -0.28251622      11.35000000       0.00000000
Hf      88.38109473      -1.34710591      12.80393874       0.00000000
S       86.60795075      -2.41052108      14.25799781       0.00000000
S       86.55377381      -0.35341653      11.35000000       0.00000000
Hf      84.77702335      -1.41800622      12.80393874       0.00000000
S       83.00387937      -2.48142139      14.25799781       0.00000000
S       82.94970243      -0.42431684      11.35000000       0.00000000
Hf      81.17295197      -1.48890653      12.80393874       0.00000000
S       79.39980799      -2.55232170      14.25799781       0.00000000
S       79.34563105      -0.49521715      11.35000000       0.00000000
Hf      77.56888059      -1.55980684      12.80393874       0.00000000
S       75.79573661      -2.62322201      14.25799781       0.00000000
S       75.74155967      -0.56611746      11.35000000       0.00000000
Hf      73.96480921      -1.63070715      12.80393874       0.00000000
S       72.19166523      -2.69412232      14.25799781       0.00000000
S       72.13748829      -0.63701777      11.35000000       0.00000000
Hf      70.36073784      -1.70160746      12.80393874       0.00000000
S       68.58759385      -2.76502263      14.25799781       0.00000000
S       68.53341691      -0.70791809      11.35000000       0.00000000
Hf      66.75666646      -1.77250777      12.80393874       0.00000000
S       64.98352247      -2.83592294      14.25799781       0.00000000
S       64.92934553      -0.77881840      11.35000000       0.00000000
Hf      63.15259508      -1.84340808      12.80393874       0.00000000
S       61.37945109      -2.90682325      14.25799781       0.00000000
S       61.32527415      -0.84971871      11.35000000       0.00000000
Hf      59.54852370      -1.91430839      12.80393874       0.00000000
S       57.77537972      -2.97772357      14.25799781       0.00000000
S       57.72120277      -0.92061902      11.35000000       0.00000000
Hf      55.94445232      -1.98520870      12.80393874       0.00000000
S       54.17130834      -3.04862388      14.25799781       0.00000000
S       54.11713139      -0.99151933      11.35000000       0.00000000
Hf      52.34038094      -2.05610901      12.80393874       0.00000000
S       48.68385533      -0.07081082      14.25799781       0.00000000
S       50.51306001      -1.06241964      11.35000000       0.00000000
Hf      48.73630956      -2.12700932      12.80393874       0.00000000
S       45.07978395      -0.14171113      14.25799781       0.00000000
S       46.90898863      -1.13331995      11.35000000       0.00000000
Hf      45.13223818      -2.19790963      12.80393874       0.00000000
S       41.47571257      -0.21261144      14.25799781       0.00000000
S       43.30491725      -1.20422026      11.35000000       0.00000000
Hf      41.52816680      -2.26880995      12.80393874       0.00000000
S       37.87164119      -0.28351175      14.25799781       0.00000000
S       39.70084587      -1.27512057      11.35000000       0.00000000
Hf      37.92409542      -2.33971026      12.80393874       0.00000000
S       34.26756981      -0.35441207      14.25799781       0.00000000
S       36.09677450      -1.34602088      11.35000000       0.00000000
Hf      34.32002404      -2.41061057      12.80393874       0.00000000
S       30.66349843      -0.42531238      14.25799781       0.00000000
S       32.49270312      -1.41692119      11.35000000       0.00000000
Hf      30.71595266      -2.48151088      12.80393874       0.00000000
S       27.05942705      -0.49621269      14.25799781       0.00000000
S       28.88863174      -1.48782150      11.35000000       0.00000000
Hf      27.11188128      -2.55241119      12.80393874       0.00000000
S       23.45535567      -0.56711300      14.25799781       0.00000000
S       25.28456036      -1.55872181      11.35000000       0.00000000
Hf      23.50780990      -2.62331150      12.80393874       0.00000000
S       19.85128430      -0.63801331      14.25799781       0.00000000
S       21.68048898      -1.62962213      11.35000000       0.00000000
Hf      19.90373852      -2.69421181      12.80393874       0.00000000
S       16.24721292      -0.70891362      14.25799781       0.00000000
S       18.07641760      -1.70052244      11.35000000       0.00000000
Hf      16.29966714      -2.76511212      12.80393874       0.00000000
S       12.64314154      -0.77981393      14.25799781       0.00000000
S       14.47234622      -1.77142275      11.35000000       0.00000000
Hf      12.69559576      -2.83601243      12.80393874       0.00000000
S        9.03907016      -0.85071424      14.25799781       0.00000000
S       10.86827484      -1.84232306      11.35000000       0.00000000
Hf       9.09152438      -2.90691274      12.80393874       0.00000000
S        5.43499878      -0.92161455      14.25799781       0.00000000
S        7.26420346      -1.91322337      11.35000000       0.00000000
Hf       5.48745301      -2.97781305      12.80393874       0.00000000
S        1.83092740      -0.99251486      14.25799781       0.00000000
S        3.66013208      -1.98412368      11.35000000       0.00000000
Ga      74.90694006      -1.18057077      18.05757309       0.00000000
Ga      74.90663928      -1.17913434      20.49984396       0.00000000
S       76.71981165      -2.15009713      16.95799781       0.00000000
S       76.72045396      -2.14797261      21.59961447       0.00000000
Ga      71.34666825      -1.32237139      18.05757309       0.00000000
Ga      71.34636747      -1.32093496      20.49984396       0.00000000
S       73.15953984      -2.29189775      16.95799781       0.00000000
S       73.16018216      -2.28977323      21.59961447       0.00000000
Ga      67.78639644      -1.46417201      18.05757309       0.00000000
Ga      67.78609566      -1.46273558      20.49984396       0.00000000
S       69.59926804      -2.43369837      16.95799781       0.00000000
S       69.59991035      -2.43157385      21.59961447       0.00000000
Ga      64.22612463      -1.60597263      18.05757309       0.00000000
Ga      64.22582386      -1.60453621      20.49984396       0.00000000
S       66.03899623      -2.57549899      16.95799781       0.00000000
S       66.03963854      -2.57337448      21.59961447       0.00000000
Ga      60.66585283      -1.74777326      18.05757309       0.00000000
Ga      60.66555205      -1.74633683      20.49984396       0.00000000
S       62.47872442      -2.71729962      16.95799781       0.00000000
S       62.47936673      -2.71517510      21.59961447       0.00000000
Ga      57.10558102      -1.88957388      18.05757309       0.00000000
Ga      57.10528024      -1.88813745      20.49984396       0.00000000
S       58.91845262      -2.85910024      16.95799781       0.00000000
S       58.91909493      -2.85697572      21.59961447       0.00000000
Ga      53.54530921      -2.03137450      18.05757309       0.00000000
Ga      53.54500844      -2.02993807      20.49984396       0.00000000
S       55.35818081      -3.00090086      16.95799781       0.00000000
S       55.35882312      -2.99877634      21.59961447       0.00000000
Ga      49.98503741      -2.17317512      18.05757309       0.00000000
Ga      49.98473663      -2.17173869      20.49984396       0.00000000
S       49.91452738      -0.09398812      16.95799781       0.00000000
S       49.91516969      -0.09186360      21.59961447       0.00000000
Ga      46.42476560      -2.31497574      18.05757309       0.00000000
Ga      46.42446482      -2.31353931      20.49984396       0.00000000
S       46.35425557      -0.23578874      16.95799781       0.00000000
S       46.35489788      -0.23366422      21.59961447       0.00000000
Ga      42.86449379      -2.45677636      18.05757309       0.00000000
Ga      42.86419301      -2.45533994      20.49984396       0.00000000
S       42.79398377      -0.37758936      16.95799781       0.00000000
S       42.79462608      -0.37546484      21.59961447       0.00000000
Ga      39.30422199      -2.59857699      18.05757309       0.00000000
Ga      39.30392121      -2.59714056      20.49984396       0.00000000
S       39.23371196      -0.51938998      16.95799781       0.00000000
S       39.23435427      -0.51726546      21.59961447       0.00000000
Ga      35.74395018      -2.74037761      18.05757309       0.00000000
Ga      35.74364940      -2.73894118      20.49984396       0.00000000
S       35.67344015      -0.66119060      16.95799781       0.00000000
S       35.67408246      -0.65906608      21.59961447       0.00000000
Ga      32.18367837      -2.88217823      18.05757309       0.00000000
Ga      32.18337759      -2.88074180      20.49984396       0.00000000
S       32.11316834      -0.80299122      16.95799781       0.00000000
S       32.11381065      -0.80086671      21.59961447       0.00000000
Ga      28.62340657      -3.02397885      18.05757309       0.00000000
Ga      28.62310579      -3.02254242      20.49984396       0.00000000
S       28.55289654      -0.94479185      16.95799781       0.00000000
S       28.55353885      -0.94266733      21.59961447       0.00000000
Ga      23.17975313      -0.11706611      18.05757309       0.00000000
Ga      23.17945236      -0.11562968      20.49984396       0.00000000
S       24.99262473      -1.08659247      16.95799781       0.00000000
S       24.99326704      -1.08446795      21.59961447       0.00000000
Ga      19.61948133      -0.25886673      18.05757309       0.00000000
Ga      19.61918055      -0.25743030      20.49984396       0.00000000
S       21.43235292      -1.22839309      16.95799781       0.00000000
S       21.43299523      -1.22626857      21.59961447       0.00000000
Ga      16.05920952      -0.40066735      18.05757309       0.00000000
Ga      16.05890874      -0.39923092      20.49984396       0.00000000
S       17.87208112      -1.37019371      16.95799781       0.00000000
S       17.87272343      -1.36806919      21.59961447       0.00000000
Ga      12.49893771      -0.54246797      18.05757309       0.00000000
Ga      12.49863694      -0.54103154      20.49984396       0.00000000
S       14.31180931      -1.51199433      16.95799781       0.00000000
S       14.31245162      -1.50986981      21.59961447       0.00000000
Ga       8.93866591      -0.68426859      18.05757309       0.00000000
Ga       8.93836513      -0.68283217      20.49984396       0.00000000
S       10.75153750      -1.65379495      16.95799781       0.00000000
S       10.75217981      -1.65167044      21.59961447       0.00000000
Ga       5.37839410      -0.82606921      18.05757309       0.00000000
Ga       5.37809332      -0.82463279      20.49984396       0.00000000
S        7.19126570      -1.79559558      16.95799781       0.00000000
S        7.19190801      -1.79347106      21.59961447       0.00000000
Ga       1.81812229      -0.96786984      18.05757309       0.00000000
Ga       1.81782151      -0.96643341      20.49984396       0.00000000
S        3.63099389      -1.93739620      16.95799781       0.00000000
S        3.63163620      -1.93527168      21.59961447       0.00000000
Ga     155.11630143      -1.10967046      18.05757309       0.00000000
Ga     155.11600065      -1.10823403      20.49984396       0.00000000
S      156.92917303      -2.07919682      16.95799781       0.00000000
S      156.92981534      -2.07707230      21.59961447       0.00000000
Ga     151.55602962      -1.25147108      18.05757309       0.00000000
Ga     151.55572884      -1.25003465      20.49984396       0.00000000
S      153.36890122      -2.22099744      16.95799781       0.00000000
S      153.36954353      -2.21887292      21.59961447       0.00000000
Ga     147.99575782      -1.39327170      18.05757309       0.00000000
Ga     147.99545704      -1.39183527      20.49984396       0.00000000
S      149.80862941      -2.36279806      16.95799781       0.00000000
S      149.80927172      -2.36067354      21.59961447       0.00000000
Ga     144.43548601      -1.53507232      18.05757309       0.00000000
Ga     144.43518523      -1.53363589      20.49984396       0.00000000
S      146.24835761      -2.50459868      16.95799781       0.00000000
S      146.24899992      -2.50247417      21.59961447       0.00000000
Ga     140.87521420      -1.67687294      18.05757309       0.00000000
Ga     140.87491342      -1.67543652      20.49984396       0.00000000
S      142.68808580      -2.64639930      16.95799781       0.00000000
S      142.68872811      -2.64427479      21.59961447       0.00000000
Ga     137.31494240      -1.81867357      18.05757309       0.00000000
Ga     137.31464162      -1.81723714      20.49984396       0.00000000
S      139.12781399      -2.78819993      16.95799781       0.00000000
S      139.12845630      -2.78607541      21.59961447       0.00000000
Ga     133.75467059      -1.96047419      18.05757309       0.00000000
Ga     133.75436981      -1.95903776      20.49984396       0.00000000
S      135.56754219      -2.93000055      16.95799781       0.00000000
S      135.56818450      -2.92787603      21.59961447       0.00000000
Ga     130.19439878      -2.10227481      18.05757309       0.00000000
Ga     130.19409800      -2.10083838      20.49984396       0.00000000
S      130.12388875      -0.02308781      16.95799781       0.00000000
S      130.12453106      -0.02096329      21.59961447       0.00000000
Ga     126.63412698      -2.24407543      18.05757309       0.00000000
Ga     126.63382620      -2.24263900      20.49984396       0.00000000
S      126.56361695      -0.16488843      16.95799781       0.00000000
S      126.56425926      -0.16276391      21.59961447       0.00000000
Ga     123.07385517      -2.38587605      18.05757309       0.00000000
Ga     123.07355439      -2.38443962      20.49984396       0.00000000
S      123.00334514      -0.30668905      16.95799781       0.00000000
S      123.00398745      -0.30456453      21.59961447       0.00000000
Ga     119.51358336      -2.52767667      18.05757309       0.00000000
Ga     119.51328258      -2.52624025      20.49984396       0.00000000
S      119.44307333      -0.44848967      16.95799781       0.00000000
S      119.44371564      -0.44636515      21.59961447       0.00000000
Ga     115.95331156      -2.66947730      18.05757309       0.00000000
Ga     115.95301078      -2.66804087      20.49984396       0.00000000
S      115.88280153      -0.59029029      16.95799781       0.00000000
S      115.88344384      -0.58816577      21.59961447       0.00000000
Ga     112.39303975      -2.81127792      18.05757309       0.00000000
Ga     112.39273897      -2.80984149      20.49984396       0.00000000
S      112.32252972      -0.73209091      16.95799781       0.00000000
S      112.32317203      -0.72996640      21.59961447       0.00000000
Ga     108.83276794      -2.95307854      18.05757309       0.00000000
Ga     108.83246716      -2.95164211      20.49984396       0.00000000
S      108.76225791      -0.87389153      16.95799781       0.00000000
S      108.76290022      -0.87176702      21.59961447       0.00000000
Ga     103.38911451      -0.04616580      18.05757309       0.00000000
Ga     103.38881373      -0.04472937      20.49984396       0.00000000
S      105.20198611      -1.01569216      16.95799781       0.00000000
S      105.20262842      -1.01356764      21.59961447       0.00000000
Ga      99.82884270      -0.18796642      18.05757309       0.00000000
Ga      99.82854192      -0.18652999      20.49984396       0.00000000
S      101.64171430      -1.15749278      16.95799781       0.00000000
S      101.64235661      -1.15536826      21.59961447       0.00000000
Ga      96.26857090      -0.32976704      18.05757309       0.00000000
Ga      96.26827012      -0.32833061      20.49984396       0.00000000
S       98.08144249      -1.29929340      16.95799781       0.00000000
S       98.08208480      -1.29716888      21.59961447       0.00000000
Ga      92.70829909      -0.47156766      18.05757309       0.00000000
Ga      92.70799831      -0.47013123      20.49984396       0.00000000
S       94.52117069      -1.44109402      16.95799781       0.00000000
S       94.52181300      -1.43896950      21.59961447       0.00000000
Ga      89.14802728      -0.61336828      18.05757309       0.00000000
Ga      89.14772650      -0.61193185      20.49984396       0.00000000
S       90.96089888      -1.58289464      16.95799781       0.00000000
S       90.96154119      -1.58077013      21.59961447       0.00000000
Ga      85.58775548      -0.75516890      18.05757309       0.00000000
Ga      85.58745470      -0.75373248      20.49984396       0.00000000
S       87.40062707      -1.72469526      16.95799781       0.00000000
S       87.40126938      -1.72257075      21.59961447       0.00000000
Ga      82.02748367      -0.89696953      18.05757309       0.00000000
Ga      82.02718289      -0.89553310      20.49984396       0.00000000
S       83.84035527      -1.86649589      16.95799781       0.00000000
S       83.84099758      -1.86437137      21.59961447       0.00000000
Ga      78.46721186      -1.03877015      18.05757309       0.00000000
Ga      78.46691108      -1.03733372      20.49984396       0.00000000
S       80.28008346      -2.00829651      16.95799781       0.00000000
S       80.28072577      -2.00617199      21.59961447       0.00000000
