&CONTROL
   calculation      = 'bands'
   verbosity        = 'high'
   restart_mode     = 'from_scratch'
   nstep            = 10
   tstress          = .true.
   tprnfor          = .true.
   outdir           = './tmp'
   prefix           = '1D_Relax'
   max_seconds      = 7000
   forc_conv_thr    = 0.0001
   disk_io          = 'low'
   pseudo_dir       = '/home1/08526/jdgeorga/espresso/pseudo_new/'
   tefield          = .true.
   dipfield         = .true.
/
&SYSTEM
   ibrav            = 0
   ntyp             = 3
   ecutwfc          = 60.0
   occupations      = 'smearing'
   degauss          = 0.01
   smearing         = 'gauss'
   input_dft        = 'vdw-df-c09'
   edir             = 3
   emaxpos          = 0.1
   nat              = 301
   nbnd             = 1980
/
&ELECTRONS
   conv_thr         = 1e-10
   mixing_mode      = 'local-TF'
   mixing_beta      = 0.7
   electron_maxstep = 300
   diagonalization  = 'ppcg'
   mixing_ndim      = 10

/
&IONS
   ion_dynamics     = 'bfgs'
/
&CELL
/
&FCP
/
&RISM
/
ATOMIC_SPECIES
Hf 178.49 Hf_ONCV_PBE-1.2.upf
S 32.06 S_ONCV_PBE-1.2.upf
Ga 69.723 Ga_ONCV_PBE-1.2.upf

K_POINTS crystal_b
43
0.00000000000000 0.00000000000000 0.00000000000000 0
-1.64285714285714 -0.07142857142857 0.00000000000000 0
-3.28571428571429 -0.14285714285714 0.00000000000000 0
-4.92857142857143 -0.21428571428571 0.00000000000000 0
-6.57142857142857 -0.28571428571429 0.00000000000000 0
-8.21428571428572 -0.35714285714286 0.00000000000000 0
-9.85714285714286 -0.42857142857143 0.00000000000000 0
-11.50000000000000 -0.50000000000000 0.00000000000000 0
-11.57953848032422 -0.50035261573548 0.00000000000000 0
-11.65907696064844 -0.50070523147095 0.00000000000000 0
-11.73861544097266 -0.50105784720643 0.00000000000000 0
-11.81815392129687 -0.50141046294190 0.00000000000000 0
-11.89769240162109 -0.50176307867738 0.00000000000000 0
-11.97723088194531 -0.50211569441285 0.00000000000000 0
-12.05676936226953 -0.50246831014833 0.00000000000000 0
-12.04865945337388 -0.50211569441285 0.00000000000000 0
-12.04054954447823 -0.50176307867738 0.00000000000000 0
-12.03243963558259 -0.50141046294190 0.00000000000000 0
-12.02432972668694 -0.50105784720643 0.00000000000000 0
-12.01621981779129 -0.50070523147095 0.00000000000000 0
-12.00810990889565 -0.50035261573548 0.00000000000000 0
-12.00000000000000 -0.50000000000000 0.00000000000000 0
-12.00810990889565 -0.50035261573548 0.00000000000000 0
-12.01621981779129 -0.50070523147095 0.00000000000000 0
-12.02432972668694 -0.50105784720643 0.00000000000000 0
-12.03243963558259 -0.50141046294190 0.00000000000000 0
-12.04054954447823 -0.50176307867738 0.00000000000000 0
-12.04865945337388 -0.50211569441285 0.00000000000000 0
-12.05676936226953 -0.50246831014833 0.00000000000000 0
-10.40580231051674 -0.43068712298428 0.00000000000000 0
-8.75483525876395 -0.35890593582023 0.00000000000000 0
-7.10386820701116 -0.28712474865619 0.00000000000000 0
-5.45290115525837 -0.21534356149214 0.00000000000000 0
-3.80193410350558 -0.14356237432809 0.00000000000000 0
-2.15096705175279 -0.07178118716405 0.00000000000000 0
-0.50000000000000 0.00000000000000 0.00000000000000 0
-0.42857142857143 0.00000000000000 0.00000000000000 0
-0.35714285714286 0.00000000000000 0.00000000000000 0
-0.28571428571429 0.00000000000000 0.00000000000000 0
-0.21428571428571 0.00000000000000 0.00000000000000 0
-0.14285714285714 0.00000000000000 0.00000000000000 0
-0.07142857142857 0.00000000000000 0.00000000000000 0
0.00000000000000 0.00000000000000 0.00000000000000 0

CELL_PARAMETERS angstrom
156.85845094282251 -0.00000000000046 0.00000000000000
1.88338162553592 -3.04871336447944 0.00000000000000
0.00000000000000 0.00000000000000 24.0000000000000

ATOMIC_POSITIONS (angstrom)
Hf              -0.0513311545       -0.0144146148       12.6128581317
S              155.0470655915       -1.0939339141       14.0781918554
S              156.8681890585       -2.0817482871       11.1555492546
Hf             153.2247476767       -0.1111860587       12.6169260311
S              151.4622146367       -1.1912917573       14.0805228159
S              153.2842802217       -2.1788124727       11.1599300904
Hf             149.6375384474       -0.2065258485       12.6198359804
S              147.8777206651       -1.2940840494       14.0819581192
S              149.6982885468       -2.2776634564       11.1625720636
Hf             146.0557835899       -0.3146986798       12.6210044367
S              144.2915296084       -1.3966600441       14.0842006768
S              146.1118768968       -2.3825087819       11.1657731398
Hf             142.4674900915       -0.4180123319       12.6254487665
S              140.6978451985       -1.4948036932       14.0849717061
S              142.5226684692       -2.4841800628       11.1694736036
Hf             138.8706853602       -0.5120224072       12.6262589632
S              137.1002279726       -1.5903496838       14.0848988235
S              138.9269855754       -2.5805182824       11.1705259866
Hf             135.2710551663       -0.6050553212       12.6259987933
S              133.5036823542       -1.6909516650       14.0824442373
S              135.3299283201       -2.6763048398       11.1694876604
Hf             131.6755406257       -0.7061864972       12.6227859257
S              129.9114180025       -1.7981296819       14.0799950489
S              131.7344000209       -2.7791627451       11.1669710670
Hf             128.0869024177       -0.8203862799       12.6207002599
S              126.3166371264       -1.9013034128       14.0791772993
S              128.1401420035       -2.8875104564       11.1660651919
Hf             124.4894858494       -0.9224590918       12.6215132933
S              122.7147940610       -1.9975683301       14.0785604356
S              124.5415588509       -2.9891907550       11.1668564503
Hf             120.8852200694       -1.0157449899       12.6211154246
S              119.1085664776       -2.0882695051       14.0793227739
S              120.9362364917       -3.0840413855       11.1677262560
Hf             117.2766096618       -1.1053151227       12.6230637661
S              115.4974072938       -2.1768438118       14.0800179950
S              117.3266130334       -3.1746171387       11.1701215058
Hf             113.6640137550       -1.1938243767       12.6241109291
S              111.8806445018       -2.2641111349       14.0792227187
S              113.7116531399       -3.2639026154       11.1724781819
Hf             110.0455607223       -1.2820808154       12.6247440837
S              108.2555726680       -2.3460530597       14.0793291632
S              110.0884140963       -3.3522326923       11.1754258091
Hf             106.4169445594       -1.3656861613       12.6270837622
S              104.6200390320       -2.4190023083       14.0851984104
S              106.4540999595       -3.4350409138       11.1817105054
Hf             102.7743320526       -1.4369486664       12.6369955029
S              100.9789690900       -2.4886366354       14.0932902906
S              100.9339026395       -0.4568863843       11.1880148457
Hf              99.1395273137       -1.5080317231       12.6425540266
S               97.3326512108       -2.5446204416       14.0930434407
S               97.3001460451       -0.5181283009       11.1886832114
Hf              95.4942416747       -1.5529044738       12.6371787102
S               93.6880070107       -2.5885403089       14.0915537990
S               93.6586770554       -0.5664601515       11.1843691260
Hf              91.8543094081       -1.6010539887       12.6363162971
S               90.0332540249       -2.6225195811       14.0797429246
S               90.0194555724       -0.6031975204       11.1772222440
Hf              88.2015043787       -1.6241915845       12.6176599717
S               86.3837106483       -2.6509523080       14.0627199279
S               86.3713989295       -0.6300011544       11.1591686128
Hf              84.5547658129       -1.6518283226       12.6003380686
S               82.7403101444       -2.6794873353       14.0473361937
S               82.7278979481       -0.6562702983       11.1400120271
Hf              80.9171112744       -1.6822906908       12.5832540851
S               79.0948007969       -2.7029758181       14.0220240635
S               79.0943809114       -0.6779971493       11.1170804305
Hf              77.2753761467       -1.6979829827       12.5538832275
S               75.4563436345       -2.7222150987       13.9851713662
S               75.4616931093       -0.6922059489       11.0807257664
Hf              73.6402968649       -1.7101623202       12.5095619857
S               71.8405085656       -2.7385337180       13.9615545880
S               71.8260757524       -0.7122618641       11.0433538480
Hf              70.0233426717       -1.7358524018       12.4927510896
S               68.2302533179       -2.7562043096       13.9544504236
S               68.2032771368       -0.7361781065       11.0282762022
Hf              66.4091528785       -1.7553203492       12.4879076375
S               64.6240872915       -2.7789775050       13.9554087327
S               64.5874770101       -0.7597055483       11.0261691817
Hf              62.8008992126       -1.7811022025       12.4919107390
S               61.0268617420       -2.8104476628       13.9650649794
S               60.9787661954       -0.7892495495       11.0310241416
Hf              59.2039836342       -1.8180280300       12.5024671177
S               57.4393785889       -2.8459329893       13.9905770339
S               57.3735107572       -0.8302941142       11.0499232961
Hf              55.6108811180       -1.8612450223       12.5368361060
S               53.8448551585       -2.8914500135       14.0236328352
S               53.7772877651       -0.8743746002       11.0852381556
Hf              52.0138992219       -1.9074126161       12.5714193619
S               48.3636182391        0.0992079494       14.0451286026
S               50.1899145695       -0.9185579279       11.1116678412
Hf              48.4244121731       -1.9615967594       12.5839607355
S               44.7753683598        0.0334962150       14.0532144371
S               46.6036371049       -0.9739642168       11.1231147517
Hf              44.8407266464       -2.0297322542       12.5907657793
S               41.1886082350       -0.0372409730       14.0574196864
S               43.0178604144       -1.0413161291       11.1304881930
Hf              41.2534284786       -2.1019608682       12.5951027925
S               37.6009518001       -0.1094904931       14.0612549994
S               39.4310950825       -1.1126632216       11.1345782317
Hf              37.6650601739       -2.1724263963       12.5982601267
S               34.0154000037       -0.1847371560       14.0643586333
S               35.8448783000       -1.1847359821       11.1373190320
Hf              34.0793176459       -2.2455699731       12.6005326632
S               30.4335075107       -0.2669119141       14.0656711332
S               32.2607415670       -1.2614724464       11.1397891394
Hf              30.4984308757       -2.3300244674       12.6017789992
S               26.8528585606       -0.3549380671       14.0662284589
S               28.6787505532       -1.3463917763       11.1418960012
Hf              26.9184105227       -2.4217489781       12.6031088376
S               23.2701526276       -0.4418205485       14.0673379947
S               25.0972874615       -1.4349390250       11.1429507068
Hf              23.3347620409       -2.5075276619       12.6039781084
S               19.6874407892       -0.5287114251       14.0682207112
S               21.5139381593       -1.5213254952       11.1440430396
Hf              19.7501233210       -2.5922612429       12.6050106150
S               16.1071792504       -0.6212715108       14.0696398849
S               17.9308438585       -1.6097117293       11.1455723496
Hf              16.1713751016       -2.6881273475       12.6064827077
S               12.5258722130       -0.7157663219       14.0706711511
S               14.3490798806       -1.7043873643       11.1483520875
Hf              12.5892894110       -2.7850020812       12.6091318100
S                8.9394879350       -0.8085901603       14.0719761900
S               10.7648736128       -1.7996454170       11.1512859677
Hf               8.9998401132       -2.8747540199       12.6106771625
S                5.3521592897       -0.9006688608       14.0736549961
S                7.1773259957       -1.8914910906       11.1527095585
Hf               5.4115276984       -2.9648256185       12.6124623435
S                1.7695868515       -0.9976703268       14.0753664440
S                3.5922168051       -1.9839378551       11.1532131344
Ga              75.1295441517       -1.0548818684       18.1867484902
Ga              75.0884127167       -1.0781217305       20.6311072336
S               76.9568257610       -2.0226103814       17.0936443469
S               76.9053108063       -2.0522507857       21.7294199060
Ga              71.6136708006       -1.3023569611       18.1757148617
Ga              71.5775090673       -1.3172413608       20.6202955223
S               73.4378277814       -2.2573116479       17.0847126403
S               73.3923822545       -2.2825305404       21.7176686589
Ga              68.0313600612       -1.4932404924       18.1733345164
Ga              68.0216198976       -1.4957562263       20.6156482245
S               69.8692435969       -2.4494886171       17.0910695747
S               69.8446321329       -2.4654526080       21.7073027174
Ga              64.4721384553       -1.6676647322       18.1753561161
Ga              64.4688485183       -1.6675815523       20.6211224741
S               66.2984385258       -2.6330428041       17.0775179729
S               66.2893736424       -2.6382232002       21.7153148409
Ga              60.9145273331       -1.8481860344       18.1656770254
Ga              60.9138029667       -1.8450785456       20.6076957175
S               62.7425700623       -2.8139918153       17.0742633207
S               62.7328840193       -2.8158324467       21.7044551777
Ga              57.3604907969       -2.0432365987       18.1762893868
Ga              57.3572524236       -2.0134087808       20.6210828451
S               59.1858794308       -3.0073519760       17.0803916126
S               59.1826901795       -2.9839696155       21.7101563979
Ga              53.8012976058       -2.1805315870       18.1818658736
Ga              53.7985031069       -2.1754048010       20.6270629120
S               55.6188772228       -3.1594951053       17.0763662403
S               55.6204206733       -3.1477535462       21.7203662556
Ga              50.2401334626       -2.3462484451       18.1844267555
Ga              50.2090760882       -2.3207535921       20.6262577887
S               50.1773237723       -0.2683502197       17.0878450308
S               50.1598131947       -0.2445066319       21.7144282178
Ga              46.6438273780       -2.4874591397       18.1843510995
Ga              46.6424737059       -2.4814576577       20.6282433679
S               46.5939768492       -0.4111597959       17.0961409073
S               46.5874905181       -0.4013532434       21.7203229429
Ga              43.0817713925       -2.6430632059       18.1856630070
Ga              43.0808151496       -2.6093894888       20.6300431610
S               43.0201916486       -0.5671635622       17.0870236012
S               43.0141339461       -0.5403435989       21.7332991212
Ga              39.4794273022       -2.7453818500       18.1862153715
Ga              39.4815721652       -2.7367059641       20.6299549950
S               39.4271704945       -0.6745197883       17.0928587719
S               39.4307774741       -0.6608346535       21.7175576454
Ga              35.9178230911       -2.8957745563       18.1851123755
Ga              35.9168849878       -2.8591379110       20.6297441078
S               35.8559578830       -0.8227687559       17.0858298712
S               35.8505880520       -0.7934353324       21.7331567903
Ga              32.3144247904       -2.9985471561       18.1859950159
Ga              32.3175248530       -2.9891976823       20.6296281611
S               32.2623570416       -0.9279368755       17.0923713161
S               32.2671073982       -0.9131495407       21.7162108087
Ga              28.7553384522       -3.1517489206       18.1843688085
Ga              28.7545849298       -3.1144783048       20.6292507736
S               28.6931408019       -1.0778696222       17.0845085234
S               28.6879894675       -1.0484810095       21.7321008288
Ga              23.2685142648       -0.2023858610       18.1890561637
Ga              23.2732644172       -0.1946537275       20.6325788845
S               25.0985447585       -1.1822644504       17.0939113180
S               25.1038373151       -1.1645060237       21.7185801764
Ga              19.7131732041       -0.3594048485       18.1853818643
Ga              19.7113354364       -0.3224445104       20.6313257994
S               21.5353045726       -1.3326572566       17.0865739466
S               21.5285109145       -1.3049092937       21.7338661264
Ga              16.1524052689       -0.4820293341       18.1854338811
Ga              16.1536897338       -0.4773392958       20.6304563089
S               17.9692799061       -1.4648430472       17.0796396006
S               17.9724994670       -1.4535896080       21.7270770057
Ga              12.5516652576       -0.5735637177       18.1851717090
Ga              12.5523880045       -0.5720511036       20.6291650534
S               14.3773609574       -1.5555205628       17.0877863417
S               14.3802041185       -1.5519423670       21.7232684567
Ga               8.9917705000       -0.7285705938       18.1836230716
Ga               8.9924330065       -0.7286941603       20.6278945540
S               10.8137821572       -1.7051612272       17.0864896186
S               10.8160390594       -1.7016609277       21.7242761551
Ga               5.3941245574       -0.8230042943       18.1893511775
Ga               5.3938136070       -0.8216623166       20.6343034294
S                7.2183521431       -1.8032951563       17.0913063935
S                7.2231296585       -1.7999573487       21.7272962662
Ga               1.8665210296       -0.9620403363       18.1935683272
Ga               1.8709568074       -0.9604142459       20.6388080932
S                3.6687549849       -1.9491305410       17.0827144012
S                3.6737736002       -1.9441993937       21.7510584631
Ga             155.1318142483       -1.0508847653       18.1917223734
Ga             155.1345965246       -1.0480457802       20.6351898400
S              156.9517278993       -2.0328165595       17.0937421779
S              156.9562582601       -2.0308736070       21.7319459643
Ga             151.5730758771       -1.1856212221       18.2146536363
Ga             151.5758345519       -1.1809696564       20.6590079605
S              153.3836099126       -2.1683162160       17.1039023455
S              153.3979731062       -2.1570305604       21.7512443386
Ga             147.9895058639       -1.3066953564       18.2104571555
Ga             148.0023949275       -1.3144872133       20.6542334837
S              149.8148688720       -2.2836601636       17.1162273045
S              149.8232521868       -2.2887636635       21.7506527013
Ga             144.4166357008       -1.4181421586       18.1981116518
Ga             144.4187413684       -1.4158130440       20.6428558029
S              146.2375701617       -2.3984526980       17.1008912059
S              146.2380960694       -2.3988638192       21.7461484796
Ga             140.8681938198       -1.5690436474       18.2101115325
Ga             140.8695254539       -1.5693700346       20.6546907005
S              142.6804655655       -2.5478810975       17.1065919631
S              142.6906136298       -2.5419793952       21.7514470311
Ga             137.2936118861       -1.6469108486       18.2054735212
Ga             137.2997177964       -1.6440370288       20.6501148828
S              139.1047459911       -2.6331235269       17.1015628381
S              139.1074744847       -2.6321379425       21.7588730338
Ga             133.7414240299       -1.7801157048       18.2277067912
Ga             133.7455489412       -1.7784550963       20.6708744265
S              135.5486295956       -2.7634627783       17.1163628638
S              135.5633571783       -2.7558202356       21.7632677730
Ga             130.1678273188       -1.9045339907       18.2142625748
Ga             130.1850481488       -1.9137599981       20.6545922508
S              130.1060620951        0.1673801822       17.1209824641
S              130.1147495333        0.1574584688       21.7582213912
Ga             126.5909668671       -2.0167272869       18.2244028187
Ga             126.5949907469       -2.0058878661       20.6645579564
S              126.5233704532        0.0536791567       17.1230637631
S              126.5379712373        0.0613444643       21.7585871697
Ga             123.0531492546       -2.1537907695       18.2261875350
Ga             123.0640131482       -2.1512983383       20.6698050369
S              122.9760930453       -0.0865322158       17.1181566454
S              122.9903873889       -0.0825134762       21.7735591653
Ga             119.4954160386       -2.2501913694       18.2356520117
Ga             119.5174060195       -2.2742867456       20.6782975677
S              119.4166712697       -0.1914615329       17.1237682929
S              119.4427316929       -0.2057630025       21.7801001205
Ga             115.9222383337       -2.3745611679       18.2384016594
Ga             115.9388400204       -2.3999403598       20.6789339659
S              115.8586026318       -0.3058023308       17.1421563064
S              115.8802224614       -0.3259733719       21.7699834181
Ga             112.3776046076       -2.5073304837       18.2447936206
Ga             112.3833424887       -2.5054560547       20.6880404132
S              112.2999763702       -0.4395191905       17.1371934390
S              112.3150348925       -0.4419082215       21.7906602081
Ga             108.8487661765       -2.6515659669       18.2594861980
Ga             108.8538859446       -2.6459872561       20.7011363651
S              108.7654676558       -0.5859157522       17.1488846354
S              108.7800084209       -0.5769553221       21.8027333825
Ga             103.4186313816        0.2702717744       18.2753260296
Ga             103.4223611437        0.2653890901       20.7146173136
S              105.2228547341       -0.7145181557       17.1662176587
S              105.2375504362       -0.7117391652       21.8106912761
Ga              99.8694731395        0.1150502065       18.2937575799
Ga              99.8729054886        0.1127832524       20.7367443849
S              101.6826516026       -0.8634292468       17.1915339117
S              101.6960692818       -0.8573203069       21.8257526110
Ga              96.3540268324       -0.0309248016       18.2981311657
Ga              96.3565057318       -0.0327926076       20.7428816167
S               98.1538069564       -1.0181858288       17.1846801342
S               98.1579050609       -1.0157467651       21.8545312515
Ga              92.8074882777       -0.1990854396       18.2992625649
Ga              92.8055924378       -0.1995249241       20.7404248251
S               94.6273640196       -1.1727217896       17.2052843184
S               94.6232560107       -1.1729796690       21.8347586410
Ga              89.2641624514       -0.3689966170       18.2950131011
Ga              89.2557695650       -0.3683752913       20.7375494649
S               91.0893015240       -1.3428566591       17.2003603306
S               91.0738849297       -1.3427728412       21.8348577931
Ga              85.7518745236       -0.5643774028       18.2746036622
Ga              85.7276478485       -0.5549254762       20.7140233340
S               87.5732285950       -1.5332766087       17.1777845446
S               87.5336195637       -1.5341247747       21.8207402050
Ga              82.2142960031       -0.7238409225       18.2432539764
Ga              82.1901738046       -0.7422405210       20.6845162554
S               84.0417225121       -1.6932705549       17.1551815220
S               83.9967477221       -1.7176583176       21.7891648542
Ga              78.6788802947       -0.8839166904       18.2034428181
Ga              78.6408045561       -0.9049646898       20.6464032825
S               80.5047526817       -1.8514440557       17.1154289914
S               80.4471040142       -1.8846176531       21.7570560855