&CONTROL
   calculation      = 'bands'
   verbosity        = 'high'
   restart_mode     = 'from_scratch'
   nstep            = 10
   tstress          = .true.
   tprnfor          = .true.
   outdir           = './tmp'
   prefix           = '1D_Relax'
   max_seconds      = 7000
   forc_conv_thr    = 0.0001
   disk_io          = 'low'
   pseudo_dir       = '/home1/08526/jdgeorga/espresso/pseudo_new/'
   tefield          = .true.
   dipfield         = .true.
/
&SYSTEM
   ibrav            = 0
   ntyp             = 3
   ecutwfc          = 60.0
   occupations      = 'smearing'
   degauss          = 0.01
   smearing         = 'gauss'
   input_dft        = 'vdw-df-c09'
   edir             = 3
   emaxpos          = 0.1
   nat              = 301
   nbnd             = 1980
/
&ELECTRONS
   conv_thr         = 1e-10
   mixing_mode      = 'local-TF'
   mixing_beta      = 0.7
   electron_maxstep = 300
   diagonalization  = 'ppcg'
   mixing_ndim      = 10

/
&IONS
   ion_dynamics     = 'bfgs'
/
&CELL
/
&FCP
/
&RISM
/
ATOMIC_SPECIES
Hf 178.49 Hf_ONCV_PBE-1.2.upf
S 32.06 S_ONCV_PBE-1.2.upf
Ga 69.723 Ga_ONCV_PBE-1.2.upf

K_POINTS crystal_b
43
0.00000000000000 0.00000000000000 0.00000000000000 0
-1.64285714285714 -0.07142857142857 0.00000000000000 0
-3.28571428571429 -0.14285714285714 0.00000000000000 0
-4.92857142857143 -0.21428571428571 0.00000000000000 0
-6.57142857142857 -0.28571428571429 0.00000000000000 0
-8.21428571428572 -0.35714285714286 0.00000000000000 0
-9.85714285714286 -0.42857142857143 0.00000000000000 0
-11.50000000000000 -0.50000000000000 0.00000000000000 0
-11.57953848032422 -0.50035261573548 0.00000000000000 0
-11.65907696064844 -0.50070523147095 0.00000000000000 0
-11.73861544097266 -0.50105784720643 0.00000000000000 0
-11.81815392129687 -0.50141046294190 0.00000000000000 0
-11.89769240162109 -0.50176307867738 0.00000000000000 0
-11.97723088194531 -0.50211569441285 0.00000000000000 0
-12.05676936226953 -0.50246831014833 0.00000000000000 0
-12.04865945337388 -0.50211569441285 0.00000000000000 0
-12.04054954447823 -0.50176307867738 0.00000000000000 0
-12.03243963558259 -0.50141046294190 0.00000000000000 0
-12.02432972668694 -0.50105784720643 0.00000000000000 0
-12.01621981779129 -0.50070523147095 0.00000000000000 0
-12.00810990889565 -0.50035261573548 0.00000000000000 0
-12.00000000000000 -0.50000000000000 0.00000000000000 0
-12.00810990889565 -0.50035261573548 0.00000000000000 0
-12.01621981779129 -0.50070523147095 0.00000000000000 0
-12.02432972668694 -0.50105784720643 0.00000000000000 0
-12.03243963558259 -0.50141046294190 0.00000000000000 0
-12.04054954447823 -0.50176307867738 0.00000000000000 0
-12.04865945337388 -0.50211569441285 0.00000000000000 0
-12.05676936226953 -0.50246831014833 0.00000000000000 0
-10.40580231051674 -0.43068712298428 0.00000000000000 0
-8.75483525876395 -0.35890593582023 0.00000000000000 0
-7.10386820701116 -0.28712474865619 0.00000000000000 0
-5.45290115525837 -0.21534356149214 0.00000000000000 0
-3.80193410350558 -0.14356237432809 0.00000000000000 0
-2.15096705175279 -0.07178118716405 0.00000000000000 0
-0.50000000000000 0.00000000000000 0.00000000000000 0
-0.42857142857143 0.00000000000000 0.00000000000000 0
-0.35714285714286 0.00000000000000 0.00000000000000 0
-0.28571428571429 0.00000000000000 0.00000000000000 0
-0.21428571428571 0.00000000000000 0.00000000000000 0
-0.14285714285714 0.00000000000000 0.00000000000000 0
-0.07142857142857 0.00000000000000 0.00000000000000 0
0.00000000000000 0.00000000000000 0.00000000000000 0

CELL_PARAMETERS angstrom
156.85845094282251 -0.00000000000046 0.00000000000000
1.88338162553592 -3.04871336447944 0.00000000000000
0.00000000000000 0.00000000000000 25.0000000000000

ATOMIC_POSITIONS angstrom
Hf -0.0502321700 -0.0160726200 12.6021880000  
S 155.0452263100 -1.0957555500 14.0941548200  
S 156.8676290900 -2.0840977900 11.1169477000  
Hf 153.2219987700 -0.1136506100 12.6061555200  
S 151.4579529100 -1.1937324300 14.0973297500  
S 153.2808864800 -2.1818897100 11.1211502700  
Hf 149.6346928400 -0.2120865700 12.6095639700  
S 147.8693230500 -1.2923939300 14.0997784100  
S 149.6930937800 -2.2804495500 11.1247855600  
Hf 146.0461341400 -0.3111036900 12.6122474400  
S 144.2792206000 -1.3916144700 14.1013278000  
S 146.1040669700 -2.3795839500 11.1276204800  
Hf 142.4561750800 -0.4106247600 12.6139722800  
S 140.6875652000 -1.4910942600 14.1019744600  
S 142.5135262400 -2.4792370400 11.1295765800  
Hf 138.8645980700 -0.5104325800 12.6148944500  
S 137.0941612900 -1.5906848700 14.1018148200  
S 138.9212519400 -2.5791795400 11.1307833200  
Hf 135.2712010500 -0.6103290800 12.6150668700  
S 133.4988999000 -1.6902537700 14.1009999300  
S 135.3270206300 -2.6792963300 11.1313532800  
Hf 131.6758991700 -0.7103250100 12.6146766200  
S 129.9017053800 -1.7895374200 14.0999611000  
S 131.7305689100 -2.7795766300 11.1315994400  
Hf 128.0783514300 -0.8100859200 12.6142970500  
S 126.3020615400 -1.8882846200 14.0988893100  
S 128.1317090700 -2.8796756800 11.1319163800  
Hf 124.4781911000 -0.9093153100 12.6139542600  
S 122.6997553300 -1.9859922200 14.0981344800  
S 124.5299472500 -2.9793009400 11.1325090400  
Hf 120.8750539900 -1.0075588300 12.6141899900  
S 119.0941975700 -2.0822344300 14.0980376900  
S 120.9249041100 -3.0779904500 11.1338211400  
Hf 117.2682738500 -1.1042735400 12.6152405400  
S 115.4846344100 -2.1760580600 14.0988904400  
S 117.3159749200 -3.1751079400 11.1361248900  
Hf 113.6570686300 -1.1984113700 12.6174085900  
S 111.8700019400 -2.2662961300 14.1007325700  
S 113.7023911400 -3.2695141600 11.1396423400  
Hf 110.0402630300 -1.2887209200 12.6206940700  
S 108.2490227300 -2.3514776500 14.1034455800  
S 110.0832456200 -3.3598297900 11.1442283100  
Hf 106.4166842100 -1.3735409200 12.6248449400  
S 104.6202785800 -2.4295155100 14.1066458200  
S 106.4576037500 -3.4440993700 11.1494644300  
Hf 102.7849371300 -1.4505045700 12.6292964100  
S 100.9822811500 -2.4982678700 14.1091745200  
S 100.9414672500 -0.4710361600 11.1542257100  
Hf 99.1441958700 -1.5172387000 12.6323887300  
S 97.3351159200 -2.5559450200 14.1097845400  
S 97.3014541300 -0.5355551000 11.1565605100  
Hf 95.4953253700 -1.5718607900 12.6324696000  
S 93.6805630200 -2.6018608200 14.1071246500  
S 93.6556609800 -0.5870696300 11.1544781000  
Hf 91.8411540900 -1.6136494700 12.6276115000  
S 90.0227711400 -2.6369052200 14.0999233200  
S 90.0071946300 -0.6250520500 11.1459937900  
Hf 88.1867604100 -1.6437738600 12.6162406000  
S 86.3670707300 -2.6630933900 14.0866923100  
S 86.3604298600 -0.6509994800 11.1298625100  
Hf 84.5372815600 -1.6647332000 12.5972534200  
S 82.7185414900 -2.6828911200 14.0662695700  
S 82.7189652900 -0.6681519200 11.1058833000  
Hf 80.8963574500 -1.6800806800 12.5710781100  
S 79.0806760300 -2.6987908600 14.0399321300  
S 79.0838722000 -0.6809822400 11.0760079900  
Hf 77.2646537100 -1.6935736700 12.5412409100  
S 75.4539606500 -2.7129471100 14.0127676700  
S 75.4541456700 -0.6939008200 11.0450428900  
Hf 73.6406191500 -1.7078253100 12.5140538500  
S 71.8366996300 -2.7279115700 13.9915815900  
S 71.8284609800 -0.7095701700 11.0192611700  
Hf 70.0224284300 -1.7246730500 12.4955388200  
S 68.2269535500 -2.7461397000 13.9817334200  
S 68.2065175500 -0.7293566900 11.0039724600  
Hf 66.4091393300 -1.7455665600 12.4895935500  
S 64.6230547400 -2.7702302100 13.9850142600  
S 64.5892625300 -0.7539336700 11.0017525000  
Hf 62.8008751200 -1.7722515500 12.4965910400  
S 61.0234908700 -2.8025554900 13.9988993800  
S 60.9784678500 -0.7839852200 11.0113848700  
Hf 59.1981293900 -1.8065270100 12.5125811300  
S 57.4274740800 -2.8443621200 14.0180065300  
S 57.3750979800 -0.8205654900 11.0283629400  
Hf 55.6008804800 -1.8494082000 12.5319980800  
S 53.8345085800 -2.8955887200 14.0370113100  
S 53.7787302600 -0.8645335000 11.0472929400  
Hf 52.0084828300 -1.9010772100 12.5499732000  
S 48.3609411100 0.0937132700 14.0525438600  
S 50.1879277200 -0.9164226400 11.0640122900  
Hf 48.4199137100 -1.9606526900 12.5639252800  
S 44.7733131200 0.0277459700 14.0635937900  
S 46.6008509500 -0.9758219400 11.0766450200  
Hf 44.8340145300 -2.0267863300 12.5734985400  
S 41.1877586400 -0.0433554900 14.0705839500  
S 43.0160441300 -1.0417648300 11.0851789000  
Hf 41.2498332600 -2.0982790600 12.5793916800  
S 37.6035704900 -0.1184251000 14.0744244600  
S 39.4324825400 -1.1131729600 11.0903790500  
Hf 37.6666035200 -2.1739958700 12.5825645700  
S 34.0203572200 -0.1968229100 14.0761260700  
S 35.8494551600 -1.1889396700 11.0931748400  
Hf 34.0839407400 -2.2532460900 12.5839166100  
S 30.4377267400 -0.2778422900 14.0766513700  
S 32.2666009100 -1.2683726600 11.0944831900  
Hf 30.5014297200 -2.3352222800 12.5844227600  
S 26.8553903800 -0.3612994400 14.0766365400  
S 28.6837046400 -1.3507185000 11.0951398800  
Hf 26.9190025500 -2.4198624300 12.5845709000  
S 23.2731365200 -0.4469056900 14.0766170000  
S 25.1006257200 -1.4357757000 11.0956697300  
Hf 23.3364009100 -2.5066883400 12.5849522300  
S 19.6907825800 -0.5345653300 14.0769856500  
S 21.5172722600 -1.5230947400 11.0964795900  
Hf 19.7535958500 -2.5955352900 12.5857638300  
S 16.1083099200 -0.6240347600 14.0781852500  
S 17.9335343200 -1.6125495600 11.0979615100  
Hf 16.1704860400 -2.6862635700 12.5876341000  
S 12.5253733200 -0.7153597100 14.0802322000  
S 14.3495234400 -1.7038593400 11.1004609600  
Hf 12.5869629000 -2.7787227900 12.5903035800  
S 8.9419930000 -0.8083513800 14.0831196100  
S 10.7651173000 -1.7968905400 11.1037295300  
Hf 9.0030440500 -2.8727765700 12.5938103700  
S 5.3579085200 -0.9028485900 14.0866915200  
S 7.1803274200 -1.8914344200 11.1078188300  
Hf 5.4184645800 -2.9681637100 12.5979499400  
S 1.7728837400 -0.9987478100 14.0905091500  
S 3.5950711300 -1.9872121200 11.1123912100  
Ga 75.1392699000 -1.0862767100 18.1716327800  
Ga 75.1210576300 -1.0947769500 20.6532371000  
S 76.9671244000 -2.0429788500 17.0807341100  
S 76.9354571100 -2.0696252300 21.7627807000  
Ga 71.5950636400 -1.2876859800 18.1571196200  
Ga 71.5781699300 -1.2871198500 20.6386567500  
S 73.4232626100 -2.2430764400 17.0651908100  
S 73.3968483200 -2.2591210000 21.7442235800  
Ga 68.0454279000 -1.4889033600 18.1502581900  
Ga 68.0309895600 -1.4776635100 20.6317247900  
S 69.8739062000 -2.4453546200 17.0575335200  
S 69.8533349500 -2.4476706300 21.7342633600  
Ga 64.4902019500 -1.6846389200 18.1485359000  
Ga 64.4785995300 -1.6629616800 20.6299961000  
S 66.3188835600 -2.6448986100 17.0550198700  
S 66.3036280300 -2.6320395600 21.7306149800  
Ga 60.9290867900 -1.8700941200 18.1503135700  
Ga 60.9204891300 -1.8403529300 20.6316870000  
S 62.7576944700 -2.8359868700 17.0554294700  
S 62.7473645800 -2.8093800800 21.7312647000  
Ga 57.3622116300 -2.0426798600 18.1546275500  
Ga 57.3566867700 -2.0085107900 20.6359779800  
S 59.1903019000 -3.0143567600 17.0579199200  
S 59.1848380300 -2.9780279800 21.7348899400  
Ga 53.7903683900 -2.2027277200 18.1603742900  
Ga 53.7878864100 -2.1674656900 20.6418235700  
S 55.6177473100 -3.1790710800 17.0619922200  
S 55.6167275000 -3.1378258700 21.7404688800  
Ga 50.2149766200 -2.3523251900 18.1662771500  
Ga 50.2151842500 -2.3183354600 20.6480068300  
S 50.1582176500 -0.2831916100 17.0667018200  
S 50.1607422600 -0.2410287400 21.7467258600  
Ga 46.6375365100 -2.4941611700 18.1713062600  
Ga 46.6397683400 -2.4626545500 20.6532637600  
S 46.5801028800 -0.4269368200 17.0708975800  
S 46.5849011600 -0.3864910900 21.7525076800  
Ga 43.0590434900 -2.6304523900 18.1749546900  
Ga 43.0626622600 -2.6018611800 20.6570795200  
S 43.0011218300 -0.5642136300 17.0738934500  
S 43.0070961000 -0.5267870300 21.7571085000  
Ga 39.4802966100 -2.7627394500 18.1771467700  
Ga 39.4847552500 -2.7371601800 20.6595261100  
S 39.4218822100 -0.6969123700 17.0755083500  
S 39.4283525100 -0.6630707100 21.7603021800  
Ga 35.9017536000 -2.8921233800 18.1780883500  
Ga 35.9066998600 -2.8694396600 20.6608164300  
S 35.8428347800 -0.8263740300 17.0760599800  
S 35.8493966400 -0.7962228900 21.7621504000  
Ga 32.3236911700 -3.0194725900 18.1782422500  
Ga 32.3289614700 -2.9994082300 20.6612263400  
S 32.2642131200 -0.9535761900 17.0757743500  
S 32.2707892700 -0.9269385200 21.7630603600  
Ga 28.7462459400 -3.1452209400 18.1781604000  
Ga 28.7517969300 -3.1275265300 20.6612201900  
S 28.6861144200 -1.0791528100 17.0750179700  
S 28.6928664500 -1.0556636600 21.7634962900  
Ga 23.2860628200 -0.2209834000 18.1782341700  
Ga 23.2919705900 -0.2054131900 20.6612892900  
S 25.1085918900 -1.2033846000 17.0743764300  
S 25.1158043200 -1.1827347000 21.7638885900  
Ga 19.7100302400 -0.3443159400 18.1787507000  
Ga 19.7163778600 -0.3306953500 20.6617861500  
S 21.5317333000 -1.3265109700 17.0740889600  
S 21.5396796600 -1.3084041000 21.7646142400  
Ga 16.1347955700 -0.4666531400 18.1799832900  
Ga 16.1416973200 -0.4548498800 20.6629865700  
S 17.9556124500 -1.4486538200 17.0745370300  
S 17.9645552000 -1.4328673400 21.7659362500  
Ga 12.5603808000 -0.5880368700 18.1819964700  
Ga 12.5679119000 -0.5779811200 20.6648931300  
S 14.3802598600 -1.5698619500 17.0757607400  
S 14.3903544600 -1.5562820700 21.7680009200  
Ga 8.9868533900 -0.7085963400 18.1847418800  
Ga 8.9950617300 -0.7002389300 20.6674486000  
S 10.8057990900 -1.6902595300 17.0777271400  
S 10.8170982000 -1.6788034400 21.7707953500  
Ga 5.4142679800 -0.8284512600 18.1879756400  
Ga 5.4231977400 -0.8217851300 20.6706094000  
S 7.2323072600 -1.8099258500 17.0803699400  
S 7.2448154800 -1.8006037600 21.7741341600  
Ga 1.8426984500 -0.9476789400 18.1914353000  
Ga 1.8523778700 -0.9427016800 20.6741107100  
S 3.6598276900 -1.9289681800 17.0834705600  
S 3.6734919400 -1.9218134900 21.7778301000  
Ga 155.1306750400 -1.0664645300 18.1949048500  
Ga 155.1411351200 -1.0631881600 20.6776373200  
S 156.9468815800 -2.0475186200 17.0867355000  
S 156.9616466200 -2.0426334400 21.7816072200  
Ga 151.5612991800 -1.1850343200 18.1981330200  
Ga 151.5725705000 -1.1834056000 20.6808321400  
S 153.3766764100 -2.1658098500 17.0898609300  
S 153.3924198500 -2.1632060200 21.7851905300  
Ga 147.9931552800 -1.3034839100 18.2008270700  
Ga 148.0052518100 -1.3035111400 20.6834931500  
S 149.8076733300 -2.2839768300 17.0925276600  
S 149.8243566100 -2.2836951700 21.7883250500  
Ga 144.4261973400 -1.4219793400 18.2029346400  
Ga 144.4392085600 -1.4236299300 20.6855016400  
S 146.2398876200 -2.4021507500 17.0946706700  
S 146.2575539500 -2.4041944000 21.7908585800  
Ga 140.8605067200 -1.5407152300 18.2044264900  
Ga 140.8744986600 -1.5438645800 20.6869182500  
S 142.6733484700 -2.5205734400 17.0962278300  
S 142.6921009700 -2.5247864400 21.7927886600  
Ga 137.2960661700 -1.6597411700 18.2054251000  
Ga 137.3111632400 -1.6642773300 20.6878978100  
S 139.1080119200 -2.6392942400 17.0973520100  
S 139.1280570300 -2.6455223000 21.7941937300  
Ga 133.7328441600 -1.7791365500 18.2061836600  
Ga 133.7492444700 -1.7849920400 20.6886788000  
S 135.5438507700 -2.7584380700 17.0982812800  
S 135.5655024200 -2.7665006200 21.7952460400  
Ga 130.1709010300 -1.8989493700 18.2070396500  
Ga 130.1887894300 -1.9061332200 20.6895203000  
S 130.0974456200 0.1706251500 17.0992376300  
S 130.1211241400 0.1608733100 21.7962636200  
Ga 126.6103602800 -2.0194136700 18.2085315100  
Ga 126.6298737200 -2.0278593200 20.6908537300  
S 126.5357375400 0.0502242900 17.1006438700  
S 126.5617925100 0.0390428000 21.7976864000  
Ga 123.0513038000 -2.1406769600 18.2111111400  
Ga 123.0726003500 -2.1504851400 20.6931746400  
S 122.9754468600 -0.0710436800 17.1029831500  
S 123.0042837800 -0.0835527000 21.8000066200  
Ga 119.4940208900 -2.2631078600 18.2152622500  
Ga 119.5170814700 -2.2744306700 20.6970616500  
S 119.4168366700 -0.1935795200 17.1067740900  
S 119.4487341000 -0.2073054100 21.8036912600  
Ga 115.9389249000 -2.3871099000 18.2214450200  
Ga 115.9635074000 -2.4002955000 20.7029934300  
S 115.8603623700 -0.3178010000 17.1125354900  
S 115.8953235700 -0.3328111500 21.8091934000  
Ga 112.3866378000 -2.5134407800 18.2301444800  
Ga 112.4120482300 -2.5288826200 20.7114622900  
S 112.3066866600 -0.4444000000 17.1207796900  
S 112.3442631200 -0.4608311100 21.8169651100  
Ga 108.8377802800 -2.6432063200 18.2414400500  
Ga 108.8629902200 -2.6612146800 20.7225484600  
S 108.7567377700 -0.5743883400 17.1317673400  
S 108.7956891000 -0.5924592900 21.8272604800  
Ga 103.4097513800 0.2709560500 18.2547375400  
Ga 103.4330351100 0.2502958200 20.7355429400  
S 105.2116142000 -0.7090304200 17.1450165400  
S 105.2495810000 -0.7288829600 21.8396147600  
Ga 99.8697554100 0.1300769300 18.2684288600  
Ga 99.8890101500 0.1071055300 20.7488471700  
S 101.6723492900 -0.8496406400 17.1592556500  
S 101.7057338400 -0.8713724500 21.8527610900  
Ga 96.3343158500 -0.0185797000 18.2793396800  
Ga 96.3474991100 -0.0430247200 20.7593611300  
S 98.1393972300 -0.9973377200 17.1717564100  
S 98.1637165100 -1.0211330600 21.8640988900  
Ga 92.8026222100 -0.1757950500 18.2830550600  
Ga 92.8082031100 -0.2006175200 20.7627439000  
S 94.6119872400 -1.1525420800 17.1783434900  
S 94.6229513900 -1.1788850900 21.8696013500  
Ga 89.2730339100 -0.3416596800 18.2754101400  
Ga 89.2706918000 -0.3658107400 20.7550830300  
S 91.0878590300 -1.3150558500 17.1748914800  
S 91.0831531500 -1.3447059500 21.8650554000  
Ga 85.7435984700 -0.5159795500 18.2551108700  
Ga 85.7342458000 -0.5384614800 20.7351624400  
S 87.5638806000 -1.4848477100 17.1593112600  
S 87.5444723200 -1.5179452100 21.8481700100  
Ga 82.2124873300 -0.6986147300 18.2257929400  
Ga 82.1979262400 -0.7181854200 20.7065686700  
S 84.0370440300 -1.6625518000 17.1338198300  
S 84.0072870200 -1.6974229500 21.8209451700  
Ga 78.6782053700 -0.8890296700 18.1953986100  
Ga 78.6606064800 -0.9041905200 20.6768179200  
S 80.5050986000 -1.8487732100 17.1049177700  
S 80.4714363900 -1.8817948900 21.7898822600  

