&CONTROL
   calculation      = 'bands'
   verbosity        = 'high'
   restart_mode     = 'from_scratch'
   nstep            = 10
   tstress          = .true.
   tprnfor          = .true.
   outdir           = './tmp'
   prefix           = '1D_Relax'
   max_seconds      = 7000
   forc_conv_thr    = 0.0001
   disk_io          = 'low'
   pseudo_dir       = '/home1/08526/jdgeorga/espresso/pseudo_new/'
   tefield          = .true.
   dipfield         = .true.
/
&SYSTEM
   ibrav            = 0
   ntyp             = 3
   ecutwfc          = 60.0
   occupations      = 'smearing'
   degauss          = 0.01
   smearing         = 'gauss'
   input_dft        = 'vdw-df-c09'
   edir             = 3
   emaxpos          = 0.1
   nat              = 301
   nbnd             = 1980
/
&ELECTRONS
   conv_thr         = 1e-10
   mixing_mode      = 'local-TF'
   mixing_beta      = 0.7
   electron_maxstep = 300
   diagonalization  = 'ppcg'
   mixing_ndim      = 10

/
&IONS
   ion_dynamics     = 'bfgs'
/
&CELL
/
&FCP
/
&RISM
/
ATOMIC_SPECIES
Hf 178.49 Hf_ONCV_PBE-1.2.upf
S 32.06 S_ONCV_PBE-1.2.upf
Ga 69.723 Ga_ONCV_PBE-1.2.upf

K_POINTS crystal_b
43
0.00000000000000 0.00000000000000 0.00000000000000 0
-1.64285714285714 -0.07142857142857 0.00000000000000 0
-3.28571428571429 -0.14285714285714 0.00000000000000 0
-4.92857142857143 -0.21428571428571 0.00000000000000 0
-6.57142857142857 -0.28571428571429 0.00000000000000 0
-8.21428571428572 -0.35714285714286 0.00000000000000 0
-9.85714285714286 -0.42857142857143 0.00000000000000 0
-11.50000000000000 -0.50000000000000 0.00000000000000 0
-11.57953848032422 -0.50035261573548 0.00000000000000 0
-11.65907696064844 -0.50070523147095 0.00000000000000 0
-11.73861544097266 -0.50105784720643 0.00000000000000 0
-11.81815392129687 -0.50141046294190 0.00000000000000 0
-11.89769240162109 -0.50176307867738 0.00000000000000 0
-11.97723088194531 -0.50211569441285 0.00000000000000 0
-12.05676936226953 -0.50246831014833 0.00000000000000 0
-12.04865945337388 -0.50211569441285 0.00000000000000 0
-12.04054954447823 -0.50176307867738 0.00000000000000 0
-12.03243963558259 -0.50141046294190 0.00000000000000 0
-12.02432972668694 -0.50105784720643 0.00000000000000 0
-12.01621981779129 -0.50070523147095 0.00000000000000 0
-12.00810990889565 -0.50035261573548 0.00000000000000 0
-12.00000000000000 -0.50000000000000 0.00000000000000 0
-12.00810990889565 -0.50035261573548 0.00000000000000 0
-12.01621981779129 -0.50070523147095 0.00000000000000 0
-12.02432972668694 -0.50105784720643 0.00000000000000 0
-12.03243963558259 -0.50141046294190 0.00000000000000 0
-12.04054954447823 -0.50176307867738 0.00000000000000 0
-12.04865945337388 -0.50211569441285 0.00000000000000 0
-12.05676936226953 -0.50246831014833 0.00000000000000 0
-10.40580231051674 -0.43068712298428 0.00000000000000 0
-8.75483525876395 -0.35890593582023 0.00000000000000 0
-7.10386820701116 -0.28712474865619 0.00000000000000 0
-5.45290115525837 -0.21534356149214 0.00000000000000 0
-3.80193410350558 -0.14356237432809 0.00000000000000 0
-2.15096705175279 -0.07178118716405 0.00000000000000 0
-0.50000000000000 0.00000000000000 0.00000000000000 0
-0.42857142857143 0.00000000000000 0.00000000000000 0
-0.35714285714286 0.00000000000000 0.00000000000000 0
-0.28571428571429 0.00000000000000 0.00000000000000 0
-0.21428571428571 0.00000000000000 0.00000000000000 0
-0.14285714285714 0.00000000000000 0.00000000000000 0
-0.07142857142857 0.00000000000000 0.00000000000000 0
0.00000000000000 0.00000000000000 0.00000000000000 0

CELL_PARAMETERS angstrom
156.85845094282251 -0.00000000000046 0.00000000000000
1.88338162553592 -3.04871336447944 0.00000000000000
0.00000000000000 0.00000000000000 24.00000000000000

ATOMIC_POSITIONS angstrom
Hf 0.0000000000 0.0000000000 12.8039387400  
S 155.0853069600 -1.0634151700 14.2579978100  
S 156.9145116400 -2.0550239900 11.3500000000  
Hf 153.2543795600 -0.0709003100 12.8039387400  
S 151.4812355800 -1.1343154800 14.2579978100  
S 153.3104402600 -2.1259243000 11.3500000000  
Hf 149.6503081800 -0.1418006200 12.8039387400  
S 147.8771642000 -1.2052158000 14.2579978100  
S 149.7063688800 -2.1968246100 11.3500000000  
Hf 146.0462368000 -0.2127009300 12.8039387400  
S 144.2730928200 -1.2761161100 14.2579978100  
S 146.1022975100 -2.2677249200 11.3500000000  
Hf 142.4421654200 -0.2836012400 12.8039387400  
S 140.6690214400 -1.3470164200 14.2579978100  
S 142.4982261300 -2.3386252300 11.3500000000  
Hf 138.8380940500 -0.3545015500 12.8039387400  
S 137.0649500600 -1.4179167300 14.2579978100  
S 138.8941547500 -2.4095255400 11.3500000000  
Hf 135.2340226700 -0.4254018600 12.8039387400  
S 133.4608786800 -1.4888170400 14.2579978100  
S 135.2900833700 -2.4804258600 11.3500000000  
Hf 131.6299512900 -0.4963021800 12.8039387400  
S 129.8568073000 -1.5597173500 14.2579978100  
S 131.6860119900 -2.5513261700 11.3500000000  
Hf 128.0258799100 -0.5672024900 12.8039387400  
S 126.2527359300 -1.6306176600 14.2579978100  
S 128.0819406100 -2.6222264800 11.3500000000  
Hf 124.4218085300 -0.6381028000 12.8039387400  
S 122.6486645500 -1.7015179700 14.2579978100  
S 124.4778692300 -2.6931267900 11.3500000000  
Hf 120.8177371500 -0.7090031100 12.8039387400  
S 119.0445931700 -1.7724182800 14.2579978100  
S 120.8737978500 -2.7640271000 11.3500000000  
Hf 117.2136657700 -0.7799034200 12.8039387400  
S 115.4405217900 -1.8433185900 14.2579978100  
S 117.2697264700 -2.8349274100 11.3500000000  
Hf 113.6095943900 -0.8508037300 12.8039387400  
S 111.8364504100 -1.9142189000 14.2579978100  
S 113.6656550900 -2.9058277200 11.3500000000  
Hf 110.0055230100 -0.9217040400 12.8039387400  
S 108.2323790300 -1.9851192100 14.2579978100  
S 110.0615837100 -2.9767280300 11.3500000000  
Hf 106.4014516300 -0.9926043500 12.8039387400  
S 104.6283076500 -2.0560195200 14.2579978100  
S 106.4575123300 -3.0476283400 11.3500000000  
Hf 102.7973802500 -1.0635046600 12.8039387400  
S 101.0242362700 -2.1269198400 14.2579978100  
S 100.9700593300 -0.0698152900 11.3500000000  
Hf 99.1933088700 -1.1344049700 12.8039387400  
S 97.4201648900 -2.1978201500 14.2579978100  
S 97.3659879500 -0.1407156000 11.3500000000  
Hf 95.5892374900 -1.2053052800 12.8039387400  
S 93.8160935100 -2.2687204600 14.2579978100  
S 93.7619165700 -0.2116159100 11.3500000000  
Hf 91.9851661100 -1.2762055900 12.8039387400  
S 90.2120221300 -2.3396207700 14.2579978100  
S 90.1578451900 -0.2825162200 11.3500000000  
Hf 88.3810947300 -1.3471059100 12.8039387400  
S 86.6079507500 -2.4105210800 14.2579978100  
S 86.5537738100 -0.3534165300 11.3500000000  
Hf 84.7770233500 -1.4180062200 12.8039387400  
S 83.0038793700 -2.4814213900 14.2579978100  
S 82.9497024300 -0.4243168400 11.3500000000  
Hf 81.1729519700 -1.4889065300 12.8039387400  
S 79.3998079900 -2.5523217000 14.2579978100  
S 79.3456310500 -0.4952171500 11.3500000000  
Hf 77.5688805900 -1.5598068400 12.8039387400  
S 75.7957366100 -2.6232220100 14.2579978100  
S 75.7415596700 -0.5661174600 11.3500000000  
Hf 73.9648092100 -1.6307071500 12.8039387400  
S 72.1916652300 -2.6941223200 14.2579978100  
S 72.1374882900 -0.6370177700 11.3500000000  
Hf 70.3607378400 -1.7016074600 12.8039387400  
S 68.5875938500 -2.7650226300 14.2579978100  
S 68.5334169100 -0.7079180900 11.3500000000  
Hf 66.7566664600 -1.7725077700 12.8039387400  
S 64.9835224700 -2.8359229400 14.2579978100  
S 64.9293455300 -0.7788184000 11.3500000000  
Hf 63.1525950800 -1.8434080800 12.8039387400  
S 61.3794510900 -2.9068232500 14.2579978100  
S 61.3252741500 -0.8497187100 11.3500000000  
Hf 59.5485237000 -1.9143083900 12.8039387400  
S 57.7753797200 -2.9777235700 14.2579978100  
S 57.7212027700 -0.9206190200 11.3500000000  
Hf 55.9444523200 -1.9852087000 12.8039387400  
S 54.1713083400 -3.0486238800 14.2579978100  
S 54.1171313900 -0.9915193300 11.3500000000  
Hf 52.3403809400 -2.0561090100 12.8039387400  
S 48.6838553300 -0.0708108200 14.2579978100  
S 50.5130600100 -1.0624196400 11.3500000000  
Hf 48.7363095600 -2.1270093200 12.8039387400  
S 45.0797839500 -0.1417111300 14.2579978100  
S 46.9089886300 -1.1333199500 11.3500000000  
Hf 45.1322381800 -2.1979096300 12.8039387400  
S 41.4757125700 -0.2126114400 14.2579978100  
S 43.3049172500 -1.2042202600 11.3500000000  
Hf 41.5281668000 -2.2688099500 12.8039387400  
S 37.8716411900 -0.2835117500 14.2579978100  
S 39.7008458700 -1.2751205700 11.3500000000  
Hf 37.9240954200 -2.3397102600 12.8039387400  
S 34.2675698100 -0.3544120700 14.2579978100  
S 36.0967745000 -1.3460208800 11.3500000000  
Hf 34.3200240400 -2.4106105700 12.8039387400  
S 30.6634984300 -0.4253123800 14.2579978100  
S 32.4927031200 -1.4169211900 11.3500000000  
Hf 30.7159526600 -2.4815108800 12.8039387400  
S 27.0594270500 -0.4962126900 14.2579978100  
S 28.8886317400 -1.4878215000 11.3500000000  
Hf 27.1118812800 -2.5524111900 12.8039387400  
S 23.4553556700 -0.5671130000 14.2579978100  
S 25.2845603600 -1.5587218100 11.3500000000  
Hf 23.5078099000 -2.6233115000 12.8039387400  
S 19.8512843000 -0.6380133100 14.2579978100  
S 21.6804889800 -1.6296221300 11.3500000000  
Hf 19.9037385200 -2.6942118100 12.8039387400  
S 16.2472129200 -0.7089136200 14.2579978100  
S 18.0764176000 -1.7005224400 11.3500000000  
Hf 16.2996671400 -2.7651121200 12.8039387400  
S 12.6431415400 -0.7798139300 14.2579978100  
S 14.4723462200 -1.7714227500 11.3500000000  
Hf 12.6955957600 -2.8360124300 12.8039387400  
S 9.0390701600 -0.8507142400 14.2579978100  
S 10.8682748400 -1.8423230600 11.3500000000  
Hf 9.0915243800 -2.9069127400 12.8039387400  
S 5.4349987800 -0.9216145500 14.2579978100  
S 7.2642034600 -1.9132233700 11.3500000000  
Hf 5.4874530100 -2.9778130500 12.8039387400  
S 1.8309274000 -0.9925148600 14.2579978100  
S 3.6601320800 -1.9841236800 11.3500000000  
Ga 74.9069400600 -1.1805707700 18.0575730900  
Ga 74.9066392800 -1.1791343400 20.4998439600  
S 76.7198116500 -2.1500971300 16.9579978100  
S 76.7204539600 -2.1479726100 21.5996144700  
Ga 71.3466682500 -1.3223713900 18.0575730900  
Ga 71.3463674700 -1.3209349600 20.4998439600  
S 73.1595398400 -2.2918977500 16.9579978100  
S 73.1601821600 -2.2897732300 21.5996144700  
Ga 67.7863964400 -1.4641720100 18.0575730900  
Ga 67.7860956600 -1.4627355800 20.4998439600  
S 69.5992680400 -2.4336983700 16.9579978100  
S 69.5999103500 -2.4315738500 21.5996144700  
Ga 64.2261246300 -1.6059726300 18.0575730900  
Ga 64.2258238600 -1.6045362100 20.4998439600  
S 66.0389962300 -2.5754989900 16.9579978100  
S 66.0396385400 -2.5733744800 21.5996144700  
Ga 60.6658528300 -1.7477732600 18.0575730900  
Ga 60.6655520500 -1.7463368300 20.4998439600  
S 62.4787244200 -2.7172996200 16.9579978100  
S 62.4793667300 -2.7151751000 21.5996144700  
Ga 57.1055810200 -1.8895738800 18.0575730900  
Ga 57.1052802400 -1.8881374500 20.4998439600  
S 58.9184526200 -2.8591002400 16.9579978100  
S 58.9190949300 -2.8569757200 21.5996144700  
Ga 53.5453092100 -2.0313745000 18.0575730900  
Ga 53.5450084400 -2.0299380700 20.4998439600  
S 55.3581808100 -3.0009008600 16.9579978100  
S 55.3588231200 -2.9987763400 21.5996144700  
Ga 49.9850374100 -2.1731751200 18.0575730900  
Ga 49.9847366300 -2.1717386900 20.4998439600  
S 49.9145273800 -0.0939881200 16.9579978100  
S 49.9151696900 -0.0918636000 21.5996144700  
Ga 46.4247656000 -2.3149757400 18.0575730900  
Ga 46.4244648200 -2.3135393100 20.4998439600  
S 46.3542555700 -0.2357887400 16.9579978100  
S 46.3548978800 -0.2336642200 21.5996144700  
Ga 42.8644937900 -2.4567763600 18.0575730900  
Ga 42.8641930100 -2.4553399400 20.4998439600  
S 42.7939837700 -0.3775893600 16.9579978100  
S 42.7946260800 -0.3754648400 21.5996144700  
Ga 39.3042219900 -2.5985769900 18.0575730900  
Ga 39.3039212100 -2.5971405600 20.4998439600  
S 39.2337119600 -0.5193899800 16.9579978100  
S 39.2343542700 -0.5172654600 21.5996144700  
Ga 35.7439501800 -2.7403776100 18.0575730900  
Ga 35.7436494000 -2.7389411800 20.4998439600  
S 35.6734401500 -0.6611906000 16.9579978100  
S 35.6740824600 -0.6590660800 21.5996144700  
Ga 32.1836783700 -2.8821782300 18.0575730900  
Ga 32.1833775900 -2.8807418000 20.4998439600  
S 32.1131683400 -0.8029912200 16.9579978100  
S 32.1138106500 -0.8008667100 21.5996144700  
Ga 28.6234065700 -3.0239788500 18.0575730900  
Ga 28.6231057900 -3.0225424200 20.4998439600  
S 28.5528965400 -0.9447918500 16.9579978100  
S 28.5535388500 -0.9426673300 21.5996144700  
Ga 23.1797531300 -0.1170661100 18.0575730900  
Ga 23.1794523600 -0.1156296800 20.4998439600  
S 24.9926247300 -1.0865924700 16.9579978100  
S 24.9932670400 -1.0844679500 21.5996144700  
Ga 19.6194813300 -0.2588667300 18.0575730900  
Ga 19.6191805500 -0.2574303000 20.4998439600  
S 21.4323529200 -1.2283930900 16.9579978100  
S 21.4329952300 -1.2262685700 21.5996144700  
Ga 16.0592095200 -0.4006673500 18.0575730900  
Ga 16.0589087400 -0.3992309200 20.4998439600  
S 17.8720811200 -1.3701937100 16.9579978100  
S 17.8727234300 -1.3680691900 21.5996144700  
Ga 12.4989377100 -0.5424679700 18.0575730900  
Ga 12.4986369400 -0.5410315400 20.4998439600  
S 14.3118093100 -1.5119943300 16.9579978100  
S 14.3124516200 -1.5098698100 21.5996144700  
Ga 8.9386659100 -0.6842685900 18.0575730900  
Ga 8.9383651300 -0.6828321700 20.4998439600  
S 10.7515375000 -1.6537949500 16.9579978100  
S 10.7521798100 -1.6516704400 21.5996144700  
Ga 5.3783941000 -0.8260692100 18.0575730900  
Ga 5.3780933200 -0.8246327900 20.4998439600  
S 7.1912657000 -1.7955955800 16.9579978100  
S 7.1919080100 -1.7934710600 21.5996144700  
Ga 1.8181222900 -0.9678698400 18.0575730900  
Ga 1.8178215100 -0.9664334100 20.4998439600  
S 3.6309938900 -1.9373962000 16.9579978100  
S 3.6316362000 -1.9352716800 21.5996144700  
Ga 155.1163014300 -1.1096704600 18.0575730900  
Ga 155.1160006500 -1.1082340300 20.4998439600  
S 156.9291730300 -2.0791968200 16.9579978100  
S 156.9298153400 -2.0770723000 21.5996144700  
Ga 151.5560296200 -1.2514710800 18.0575730900  
Ga 151.5557288400 -1.2500346500 20.4998439600  
S 153.3689012200 -2.2209974400 16.9579978100  
S 153.3695435300 -2.2188729200 21.5996144700  
Ga 147.9957578200 -1.3932717000 18.0575730900  
Ga 147.9954570400 -1.3918352700 20.4998439600  
S 149.8086294100 -2.3627980600 16.9579978100  
S 149.8092717200 -2.3606735400 21.5996144700  
Ga 144.4354860100 -1.5350723200 18.0575730900  
Ga 144.4351852300 -1.5336358900 20.4998439600  
S 146.2483576100 -2.5045986800 16.9579978100  
S 146.2489999200 -2.5024741700 21.5996144700  
Ga 140.8752142000 -1.6768729400 18.0575730900  
Ga 140.8749134200 -1.6754365200 20.4998439600  
S 142.6880858000 -2.6463993000 16.9579978100  
S 142.6887281100 -2.6442747900 21.5996144700  
Ga 137.3149424000 -1.8186735700 18.0575730900  
Ga 137.3146416200 -1.8172371400 20.4998439600  
S 139.1278139900 -2.7881999300 16.9579978100  
S 139.1284563000 -2.7860754100 21.5996144700  
Ga 133.7546705900 -1.9604741900 18.0575730900  
Ga 133.7543698100 -1.9590377600 20.4998439600  
S 135.5675421900 -2.9300005500 16.9579978100  
S 135.5681845000 -2.9278760300 21.5996144700  
Ga 130.1943987800 -2.1022748100 18.0575730900  
Ga 130.1940980000 -2.1008383800 20.4998439600  
S 130.1238887500 -0.0230878100 16.9579978100  
S 130.1245310600 -0.0209632900 21.5996144700  
Ga 126.6341269800 -2.2440754300 18.0575730900  
Ga 126.6338262000 -2.2426390000 20.4998439600  
S 126.5636169500 -0.1648884300 16.9579978100  
S 126.5642592600 -0.1627639100 21.5996144700  
Ga 123.0738551700 -2.3858760500 18.0575730900  
Ga 123.0735543900 -2.3844396200 20.4998439600  
S 123.0033451400 -0.3066890500 16.9579978100  
S 123.0039874500 -0.3045645300 21.5996144700  
Ga 119.5135833600 -2.5276766700 18.0575730900  
Ga 119.5132825800 -2.5262402500 20.4998439600  
S 119.4430733300 -0.4484896700 16.9579978100  
S 119.4437156400 -0.4463651500 21.5996144700  
Ga 115.9533115600 -2.6694773000 18.0575730900  
Ga 115.9530107800 -2.6680408700 20.4998439600  
S 115.8828015300 -0.5902902900 16.9579978100  
S 115.8834438400 -0.5881657700 21.5996144700  
Ga 112.3930397500 -2.8112779200 18.0575730900  
Ga 112.3927389700 -2.8098414900 20.4998439600  
S 112.3225297200 -0.7320909100 16.9579978100  
S 112.3231720300 -0.7299664000 21.5996144700  
Ga 108.8327679400 -2.9530785400 18.0575730900  
Ga 108.8324671600 -2.9516421100 20.4998439600  
S 108.7622579100 -0.8738915300 16.9579978100  
S 108.7629002200 -0.8717670200 21.5996144700  
Ga 103.3891145100 -0.0461658000 18.0575730900  
Ga 103.3888137300 -0.0447293700 20.4998439600  
S 105.2019861100 -1.0156921600 16.9579978100  
S 105.2026284200 -1.0135676400 21.5996144700  
Ga 99.8288427000 -0.1879664200 18.0575730900  
Ga 99.8285419200 -0.1865299900 20.4998439600  
S 101.6417143000 -1.1574927800 16.9579978100  
S 101.6423566100 -1.1553682600 21.5996144700  
Ga 96.2685709000 -0.3297670400 18.0575730900  
Ga 96.2682701200 -0.3283306100 20.4998439600  
S 98.0814424900 -1.2992934000 16.9579978100  
S 98.0820848000 -1.2971688800 21.5996144700  
Ga 92.7082990900 -0.4715676600 18.0575730900  
Ga 92.7079983100 -0.4701312300 20.4998439600  
S 94.5211706900 -1.4410940200 16.9579978100  
S 94.5218130000 -1.4389695000 21.5996144700  
Ga 89.1480272800 -0.6133682800 18.0575730900  
Ga 89.1477265000 -0.6119318500 20.4998439600  
S 90.9608988800 -1.5828946400 16.9579978100  
S 90.9615411900 -1.5807701300 21.5996144700  
Ga 85.5877554800 -0.7551689000 18.0575730900  
Ga 85.5874547000 -0.7537324800 20.4998439600  
S 87.4006270700 -1.7246952600 16.9579978100  
S 87.4012693800 -1.7225707500 21.5996144700  
Ga 82.0274836700 -0.8969695300 18.0575730900  
Ga 82.0271828900 -0.8955331000 20.4998439600  
S 83.8403552700 -1.8664958900 16.9579978100  
S 83.8409975800 -1.8643713700 21.5996144700  
Ga 78.4672118600 -1.0387701500 18.0575730900  
Ga 78.4669110800 -1.0373337200 20.4998439600  
S 80.2800834600 -2.0082965100 16.9579978100  
S 80.2807257700 -2.0061719900 21.5996144700  

