13614
Lattice="154.88376147885137 -2.842170943040401e-14 0.0 77.44188073942566 -134.133272074375 0.0 0.0 0.0 31.885665450000005" Properties=species:S:1:pos:R:3:atom_types:I:1:layer_id:I:1 vacuum=20 Rs_xtal_0="[ 28 -27 -27 -55]" Rs_cart_0="[134.9388 -76.0297 1.6258 -154.8752]" base_lattice_0="[3.2515 0.0000 -1.6258 2.8159]" twist_0="[0.0000]" Rs_xtal_1="[ 27 -28 -28 -55]" Rs_cart_1="[134.9350 -76.0364 1.6181 -154.8753]" base_lattice_1="[3.2508 0.0681 -1.6844 2.7812]" twist_1="[0.0209]" pbc="T T F"
Mo       0.00000000       0.00000000      12.91355632        0        0
S       78.37770201    -132.55097470      14.47711265        1        0
S       78.37770201    -132.55097470      11.35000000        2        0
Mo     229.52694930    -132.47803557      12.91355632        0        0
S       75.57900909    -130.89573820      14.47711265        1        0
S       75.57900909    -130.89573820      11.35000000        2        0
Mo     226.72825639    -130.82279907      12.91355632        0        0
S      227.66407766    -129.24050170      14.47711265        1        0
S      227.66407766    -129.24050170      11.35000000        2        0
Mo       5.63151623      -0.05911559      12.91355632        0        0
S       84.00921823    -132.61009029      14.47711265        1        0
S       84.00921823    -132.61009029      11.35000000        2        0
Mo      80.27470405    -132.53715116      12.91355632        0        0
S       81.21052532    -130.95485379      14.47711265        1        0
S       81.21052532    -130.95485379      11.35000000        2        0
Mo      77.47601114    -130.88191466      12.91355632        0        0
S       78.41183241    -129.29961729      14.47711265        1        0
S       78.41183241    -129.29961729      11.35000000        2        0
Mo      74.67731823    -129.22667816      12.91355632        0        0
S       75.61313949    -127.64438079      14.47711265        1        0
S       75.61313949    -127.64438079      11.35000000        2        0
Mo     226.76238679    -127.57144166      12.91355632        0        0
S       72.81444658    -125.98914429      14.47711265        1        0
S       72.81444658    -125.98914429      11.35000000        2        0
Mo     223.96369388    -125.91620516      12.91355632        0        0
S      224.89951515    -124.33390779      14.47711265        1        0
S      224.89951515    -124.33390779      11.35000000        2        0
Mo      11.26303246      -0.11823118      12.91355632        0        0
S       89.64073446    -132.66920588      14.47711265        1        0
S       89.64073446    -132.66920588      11.35000000        2        0
Mo      85.90622028    -132.59626675      12.91355632        0        0
S       86.84204155    -131.01396938      14.47711265        1        0
S       86.84204155    -131.01396938      11.35000000        2        0
Mo      83.10752737    -130.94103025      12.91355632        0        0
S       84.04334864    -129.35873288      14.47711265        1        0
S       84.04334864    -129.35873288      11.35000000        2        0
Mo      80.30883446    -129.28579375      12.91355632        0        0
S       81.24465572    -127.70349638      14.47711265        1        0
S       81.24465572    -127.70349638      11.35000000        2        0
Mo      77.51014154    -127.63055725      12.91355632        0        0
S       78.44596281    -126.04825988      14.47711265        1        0
S       78.44596281    -126.04825988      11.35000000        2        0
Mo      74.71144863    -125.97532075      12.91355632        0        0
S       75.64726990    -124.39302338      14.47711265        1        0
S       75.64726990    -124.39302338      11.35000000        2        0
Mo      71.91275572    -124.32008425      12.91355632        0        0
S       72.84857698    -122.73778688      14.47711265        1        0
S       72.84857698    -122.73778688      11.35000000        2        0
Mo     223.99782428    -122.66484775      12.91355632        0        0
S       70.04988407    -121.08255038      14.47711265        1        0
S       70.04988407    -121.08255038      11.35000000        2        0
Mo     221.19913137    -121.00961125      12.91355632        0        0
S      222.13495263    -119.42731388      14.47711265        1        0
S      222.13495263    -119.42731388      11.35000000        2        0
Mo      16.89454868      -0.17734677      12.91355632        0        0
S       95.27225069    -132.72832147      14.47711265        1        0
S       95.27225069    -132.72832147      11.35000000        2        0
Mo      91.53773651    -132.65538234      12.91355632        0        0
S       92.47355778    -131.07308497      14.47711265        1        0
S       92.47355778    -131.07308497      11.35000000        2        0
Mo      88.73904360    -131.00014584      12.91355632        0        0
S       89.67486486    -129.41784847      14.47711265        1        0
S       89.67486486    -129.41784847      11.35000000        2        0
Mo      85.94035068    -129.34490934      12.91355632        0        0
S       86.87617195    -127.76261197      14.47711265        1        0
S       86.87617195    -127.76261197      11.35000000        2        0
Mo      83.14165777    -127.68967284      12.91355632        0        0
S       84.07747904    -126.10737547      14.47711265        1        0
S       84.07747904    -126.10737547      11.35000000        2        0
Mo      80.34296486    -126.03443634      12.91355632        0        0
S       81.27878612    -124.45213897      14.47711265        1        0
S       81.27878612    -124.45213897      11.35000000        2        0
Mo      77.54427194    -124.37919984      12.91355632        0        0
S       78.48009321    -122.79690247      14.47711265        1        0
S       78.48009321    -122.79690247      11.35000000        2        0
Mo      74.74557903    -122.72396334      12.91355632        0        0
S       75.68140030    -121.14166597      14.47711265        1        0
S       75.68140030    -121.14166597      11.35000000        2        0
Mo      71.94688612    -121.06872684      12.91355632        0        0
S       72.88270738    -119.48642947      14.47711265        1        0
S       72.88270738    -119.48642947      11.35000000        2        0
Mo      69.14819320    -119.41349034      12.91355632        0        0
S       70.08401447    -117.83119297      14.47711265        1        0
S       70.08401447    -117.83119297      11.35000000        2        0
Mo     221.23326177    -117.75825384      12.91355632        0        0
S       67.28532156    -116.17595647      14.47711265        1        0
S       67.28532156    -116.17595647      11.35000000        2        0
Mo     218.43456886    -116.10301734      12.91355632        0        0
S      219.37039012    -114.52071997      14.47711265        1        0
S      219.37039012    -114.52071997      11.35000000        2        0
Mo      22.52606491      -0.23646236      12.91355632        0        0
S      100.90376692    -132.78743706      14.47711265        1        0
S      100.90376692    -132.78743706      11.35000000        2        0
Mo      97.16925274    -132.71449793      12.91355632        0        0
S       98.10507401    -131.13220056      14.47711265        1        0
S       98.10507401    -131.13220056      11.35000000        2        0
Mo      94.37055983    -131.05926143      12.91355632        0        0
S       95.30638109    -129.47696406      14.47711265        1        0
S       95.30638109    -129.47696406      11.35000000        2        0
Mo      91.57186691    -129.40402493      12.91355632        0        0
S       92.50768818    -127.82172756      14.47711265        1        0
S       92.50768818    -127.82172756      11.35000000        2        0
Mo      88.77317400    -127.74878843      12.91355632        0        0
S       89.70899527    -126.16649106      14.47711265        1        0
S       89.70899527    -126.16649106      11.35000000        2        0
Mo      85.97448109    -126.09355193      12.91355632        0        0
S       86.91030235    -124.51125456      14.47711265        1        0
S       86.91030235    -124.51125456      11.35000000        2        0
Mo      83.17578817    -124.43831543      12.91355632        0        0
S       84.11160944    -122.85601806      14.47711265        1        0
S       84.11160944    -122.85601806      11.35000000        2        0
Mo      80.37709526    -122.78307893      12.91355632        0        0
S       81.31291652    -121.20078156      14.47711265        1        0
S       81.31291652    -121.20078156      11.35000000        2        0
Mo      77.57840234    -121.12784243      12.91355632        0        0
S       78.51422361    -119.54554506      14.47711265        1        0
S       78.51422361    -119.54554506      11.35000000        2        0
Mo      74.77970943    -119.47260593      12.91355632        0        0
S       75.71553070    -117.89030856      14.47711265        1        0
S       75.71553070    -117.89030856      11.35000000        2        0
Mo      71.98101652    -117.81736943      12.91355632        0        0
S       72.91683778    -116.23507206      14.47711265        1        0
S       72.91683778    -116.23507206      11.35000000        2        0
Mo      69.18232360    -116.16213293      12.91355632        0        0
S       70.11814487    -114.57983556      14.47711265        1        0
S       70.11814487    -114.57983556      11.35000000        2        0
Mo      66.38363069    -114.50689643      12.91355632        0        0
S       67.31945196    -112.92459906      14.47711265        1        0
S       67.31945196    -112.92459906      11.35000000        2        0
Mo     218.46869926    -112.85165993      12.91355632        0        0
S       64.52075904    -111.26936256      14.47711265        1        0
S       64.52075904    -111.26936256      11.35000000        2        0
Mo     215.67000634    -111.19642343      12.91355632        0        0
S      216.60582761    -109.61412606      14.47711265        1        0
S      216.60582761    -109.61412606      11.35000000        2        0
Mo      28.15758114      -0.29557795      12.91355632        0        0
S      106.53528315    -132.84655265      14.47711265        1        0
S      106.53528315    -132.84655265      11.35000000        2        0
Mo     102.80076897    -132.77361352      12.91355632        0        0
S      103.73659023    -131.19131615      14.47711265        1        0
S      103.73659023    -131.19131615      11.35000000        2        0
Mo     100.00207605    -131.11837702      12.91355632        0        0
S      100.93789732    -129.53607965      14.47711265        1        0
S      100.93789732    -129.53607965      11.35000000        2        0
Mo      97.20338314    -129.46314052      12.91355632        0        0
S       98.13920441    -127.88084315      14.47711265        1        0
S       98.13920441    -127.88084315      11.35000000        2        0
Mo      94.40469023    -127.80790402      12.91355632        0        0
S       95.34051149    -126.22560665      14.47711265        1        0
S       95.34051149    -126.22560665      11.35000000        2        0
Mo      91.60599731    -126.15266752      12.91355632        0        0
S       92.54181858    -124.57037015      14.47711265        1        0
S       92.54181858    -124.57037015      11.35000000        2        0
Mo      88.80730440    -124.49743102      12.91355632        0        0
S       89.74312567    -122.91513365      14.47711265        1        0
S       89.74312567    -122.91513365      11.35000000        2        0
Mo      86.00861149    -122.84219452      12.91355632        0        0
S       86.94443275    -121.25989715      14.47711265        1        0
S       86.94443275    -121.25989715      11.35000000        2        0
Mo      83.20991857    -121.18695802      12.91355632        0        0
S       84.14573984    -119.60466065      14.47711265        1        0
S       84.14573984    -119.60466065      11.35000000        2        0
Mo      80.41122566    -119.53172152      12.91355632        0        0
S       81.34704693    -117.94942415      14.47711265        1        0
S       81.34704693    -117.94942415      11.35000000        2        0
Mo      77.61253275    -117.87648502      12.91355632        0        0
S       78.54835401    -116.29418765      14.47711265        1        0
S       78.54835401    -116.29418765      11.35000000        2        0
Mo      74.81383983    -116.22124852      12.91355632        0        0
S       75.74966110    -114.63895115      14.47711265        1        0
S       75.74966110    -114.63895115      11.35000000        2        0
Mo      72.01514692    -114.56601202      12.91355632        0        0
S       72.95096819    -112.98371465      14.47711265        1        0
S       72.95096819    -112.98371465      11.35000000        2        0
Mo      69.21645401    -112.91077552      12.91355632        0        0
S       70.15227527    -111.32847815      14.47711265        1        0
S       70.15227527    -111.32847815      11.35000000        2        0
Mo      66.41776109    -111.25553902      12.91355632        0        0
S       67.35358236    -109.67324165      14.47711265        1        0
S       67.35358236    -109.67324165      11.35000000        2        0
Mo      63.61906818    -109.60030252      12.91355632        0        0
S       64.55488945    -108.01800515      14.47711265        1        0
S       64.55488945    -108.01800515      11.35000000        2        0
Mo     215.70413674    -107.94506602      12.91355632        0        0
S       61.75619653    -106.36276865      14.47711265        1        0
S       61.75619653    -106.36276865      11.35000000        2        0
Mo     212.90544383    -106.28982952      12.91355632        0        0
S      213.84126510    -104.70753215      14.47711265        1        0
S      213.84126510    -104.70753215      11.35000000        2        0
Mo      33.78909737      -0.35469354      12.91355632        0        0
S      112.16679938    -132.90566824      14.47711265        1        0
S      112.16679938    -132.90566824      11.35000000        2        0
Mo     108.43228520    -132.83272911      12.91355632        0        0
S      109.36810646    -131.25043174      14.47711265        1        0
S      109.36810646    -131.25043174      11.35000000        2        0
Mo     105.63359228    -131.17749261      12.91355632        0        0
S      106.56941355    -129.59519524      14.47711265        1        0
S      106.56941355    -129.59519524      11.35000000        2        0
Mo     102.83489937    -129.52225611      12.91355632        0        0
S      103.77072064    -127.93995874      14.47711265        1        0
S      103.77072064    -127.93995874      11.35000000        2        0
Mo     100.03620646    -127.86701961      12.91355632        0        0
S      100.97202772    -126.28472224      14.47711265        1        0
S      100.97202772    -126.28472224      11.35000000        2        0
Mo      97.23751354    -126.21178311      12.91355632        0        0
S       98.17333481    -124.62948574      14.47711265        1        0
S       98.17333481    -124.62948574      11.35000000        2        0
Mo      94.43882063    -124.55654661      12.91355632        0        0
S       95.37464189    -122.97424924      14.47711265        1        0
S       95.37464189    -122.97424924      11.35000000        2        0
Mo      91.64012772    -122.90131011      12.91355632        0        0
S       92.57594898    -121.31901274      14.47711265        1        0
S       92.57594898    -121.31901274      11.35000000        2        0
Mo      88.84143480    -121.24607361      12.91355632        0        0
S       89.77725607    -119.66377624      14.47711265        1        0
S       89.77725607    -119.66377624      11.35000000        2        0
Mo      86.04274189    -119.59083711      12.91355632        0        0
S       86.97856315    -118.00853974      14.47711265        1        0
S       86.97856315    -118.00853974      11.35000000        2        0
Mo      83.24404897    -117.93560061      12.91355632        0        0
S       84.17987024    -116.35330324      14.47711265        1        0
S       84.17987024    -116.35330324      11.35000000        2        0
Mo      80.44535606    -116.28036411      12.91355632        0        0
S       81.38117733    -114.69806674      14.47711265        1        0
S       81.38117733    -114.69806674      11.35000000        2        0
Mo      77.64666315    -114.62512761      12.91355632        0        0
S       78.58248441    -113.04283024      14.47711265        1        0
S       78.58248441    -113.04283024      11.35000000        2        0
Mo      74.84797023    -112.96989111      12.91355632        0        0
S       75.78379150    -111.38759374      14.47711265        1        0
S       75.78379150    -111.38759374      11.35000000        2        0
Mo      72.04927732    -111.31465461      12.91355632        0        0
S       72.98509859    -109.73235724      14.47711265        1        0
S       72.98509859    -109.73235724      11.35000000        2        0
Mo      69.25058441    -109.65941811      12.91355632        0        0
S       70.18640567    -108.07712074      14.47711265        1        0
S       70.18640567    -108.07712074      11.35000000        2        0
Mo      66.45189149    -108.00418161      12.91355632        0        0
S       67.38771276    -106.42188424      14.47711265        1        0
S       67.38771276    -106.42188424      11.35000000        2        0
Mo      63.65319858    -106.34894511      12.91355632        0        0
S       64.58901985    -104.76664774      14.47711265        1        0
S       64.58901985    -104.76664774      11.35000000        2        0
Mo      60.85450567    -104.69370861      12.91355632        0        0
S       61.79032693    -103.11141124      14.47711265        1        0
S       61.79032693    -103.11141124      11.35000000        2        0
Mo     212.93957423    -103.03847211      12.91355632        0        0
S       58.99163402    -101.45617474      14.47711265        1        0
S       58.99163402    -101.45617474      11.35000000        2        0
Mo     210.14088132    -101.38323561      12.91355632        0        0
S      211.07670259     -99.80093824      14.47711265        1        0
S      211.07670259     -99.80093824      11.35000000        2        0
Mo      39.42061360      -0.41380912      12.91355632        0        0
S      117.79831560    -132.96478383      14.47711265        1        0
S      117.79831560    -132.96478383      11.35000000        2        0
Mo     114.06380142    -132.89184470      12.91355632        0        0
S      114.99962269    -131.30954733      14.47711265        1        0
S      114.99962269    -131.30954733      11.35000000        2        0
Mo     111.26510851    -131.23660820      12.91355632        0        0
S      112.20092978    -129.65431083      14.47711265        1        0
S      112.20092978    -129.65431083      11.35000000        2        0
Mo     108.46641560    -129.58137170      12.91355632        0        0
S      109.40223686    -127.99907433      14.47711265        1        0
S      109.40223686    -127.99907433      11.35000000        2        0
Mo     105.66772268    -127.92613520      12.91355632        0        0
S      106.60354395    -126.34383783      14.47711265        1        0
S      106.60354395    -126.34383783      11.35000000        2        0
Mo     102.86902977    -126.27089870      12.91355632        0        0
S      103.80485104    -124.68860133      14.47711265        1        0
S      103.80485104    -124.68860133      11.35000000        2        0
Mo     100.07033686    -124.61566220      12.91355632        0        0
S      101.00615812    -123.03336483      14.47711265        1        0
S      101.00615812    -123.03336483      11.35000000        2        0
Mo      97.27164394    -122.96042570      12.91355632        0        0
S       98.20746521    -121.37812833      14.47711265        1        0
S       98.20746521    -121.37812833      11.35000000        2        0
Mo      94.47295103    -121.30518920      12.91355632        0        0
S       95.40877230    -119.72289183      14.47711265        1        0
S       95.40877230    -119.72289183      11.35000000        2        0
Mo      91.67425812    -119.64995270      12.91355632        0        0
S       92.61007938    -118.06765533      14.47711265        1        0
S       92.61007938    -118.06765533      11.35000000        2        0
Mo      88.87556520    -117.99471620      12.91355632        0        0
S       89.81138647    -116.41241883      14.47711265        1        0
S       89.81138647    -116.41241883      11.35000000        2        0
Mo      86.07687229    -116.33947970      12.91355632        0        0
S       87.01269356    -114.75718233      14.47711265        1        0
S       87.01269356    -114.75718233      11.35000000        2        0
Mo      83.27817938    -114.68424320      12.91355632        0        0
S       84.21400064    -113.10194583      14.47711265        1        0
S       84.21400064    -113.10194583      11.35000000        2        0
Mo      80.47948646    -113.02900670      12.91355632        0        0
S       81.41530773    -111.44670933      14.47711265        1        0
S       81.41530773    -111.44670933      11.35000000        2        0
Mo      77.68079355    -111.37377020      12.91355632        0        0
S       78.61661482    -109.79147283      14.47711265        1        0
S       78.61661482    -109.79147283      11.35000000        2        0
Mo      74.88210064    -109.71853370      12.91355632        0        0
S       75.81792190    -108.13623633      14.47711265        1        0
S       75.81792190    -108.13623633      11.35000000        2        0
Mo      72.08340772    -108.06329720      12.91355632        0        0
S       73.01922899    -106.48099983      14.47711265        1        0
S       73.01922899    -106.48099983      11.35000000        2        0
Mo      69.28471481    -106.40806070      12.91355632        0        0
S       70.22053608    -104.82576333      14.47711265        1        0
S       70.22053608    -104.82576333      11.35000000        2        0
Mo      66.48602190    -104.75282420      12.91355632        0        0
S       67.42184316    -103.17052683      14.47711265        1        0
S       67.42184316    -103.17052683      11.35000000        2        0
Mo      63.68732898    -103.09758770      12.91355632        0        0
S       64.62315025    -101.51529033      14.47711265        1        0
S       64.62315025    -101.51529033      11.35000000        2        0
Mo      60.88863607    -101.44235120      12.91355632        0        0
S       61.82445733     -99.86005383      14.47711265        1        0
S       61.82445733     -99.86005383      11.35000000        2        0
Mo      58.08994315     -99.78711470      12.91355632        0        0
S       59.02576442     -98.20481733      14.47711265        1        0
S       59.02576442     -98.20481733      11.35000000        2        0
Mo     210.17501172     -98.13187820      12.91355632        0        0
S       56.22707151     -96.54958083      14.47711265        1        0
S       56.22707151     -96.54958083      11.35000000        2        0
Mo     207.37631881     -96.47664170      12.91355632        0        0
S      208.31214007     -94.89434433      14.47711265        1        0
S      208.31214007     -94.89434433      11.35000000        2        0
Mo      45.05212983      -0.47292471      12.91355632        0        0
S      123.42983183    -133.02389942      14.47711265        1        0
S      123.42983183    -133.02389942      11.35000000        2        0
Mo     119.69531765    -132.95096029      12.91355632        0        0
S      120.63113892    -131.36866292      14.47711265        1        0
S      120.63113892    -131.36866292      11.35000000        2        0
Mo     116.89662474    -131.29572379      12.91355632        0        0
S      117.83244601    -129.71342642      14.47711265        1        0
S      117.83244601    -129.71342642      11.35000000        2        0
Mo     114.09793183    -129.64048729      12.91355632        0        0
S      115.03375309    -128.05818992      14.47711265        1        0
S      115.03375309    -128.05818992      11.35000000        2        0
Mo     111.29923891    -127.98525079      12.91355632        0        0
S      112.23506018    -126.40295342      14.47711265        1        0
S      112.23506018    -126.40295342      11.35000000        2        0
Mo     108.50054600    -126.33001429      12.91355632        0        0
S      109.43636726    -124.74771692      14.47711265        1        0
S      109.43636726    -124.74771692      11.35000000        2        0
Mo     105.70185309    -124.67477779      12.91355632        0        0
S      106.63767435    -123.09248042      14.47711265        1        0
S      106.63767435    -123.09248042      11.35000000        2        0
Mo     102.90316017    -123.01954129      12.91355632        0        0
S      103.83898144    -121.43724392      14.47711265        1        0
S      103.83898144    -121.43724392      11.35000000        2        0
Mo     100.10446726    -121.36430479      12.91355632        0        0
S      101.04028852    -119.78200742      14.47711265        1        0
S      101.04028852    -119.78200742      11.35000000        2        0
Mo      97.30577434    -119.70906829      12.91355632        0        0
S       98.24159561    -118.12677092      14.47711265        1        0
S       98.24159561    -118.12677092      11.35000000        2        0
Mo      94.50708143    -118.05383179      12.91355632        0        0
S       95.44290270    -116.47153442      14.47711265        1        0
S       95.44290270    -116.47153442      11.35000000        2        0
Mo      91.70838852    -116.39859529      12.91355632        0        0
S       92.64420978    -114.81629792      14.47711265        1        0
S       92.64420978    -114.81629792      11.35000000        2        0
Mo      88.90969560    -114.74335879      12.91355632        0        0
S       89.84551687    -113.16106142      14.47711265        1        0
S       89.84551687    -113.16106142      11.35000000        2        0
Mo      86.11100269    -113.08812229      12.91355632        0        0
S       87.04682396    -111.50582492      14.47711265        1        0
S       87.04682396    -111.50582492      11.35000000        2        0
Mo      83.31230978    -111.43288579      12.91355632        0        0
S       84.24813104    -109.85058842      14.47711265        1        0
S       84.24813104    -109.85058842      11.35000000        2        0
Mo      80.51361686    -109.77764929      12.91355632        0        0
S       81.44943813    -108.19535192      14.47711265        1        0
S       81.44943813    -108.19535192      11.35000000        2        0
Mo      77.71492395    -108.12241279      12.91355632        0        0
S       78.65074522    -106.54011542      14.47711265        1        0
S       78.65074522    -106.54011542      11.35000000        2        0
Mo      74.91623104    -106.46717629      12.91355632        0        0
S       75.85205230    -104.88487892      14.47711265        1        0
S       75.85205230    -104.88487892      11.35000000        2        0
Mo      72.11753812    -104.81193979      12.91355632        0        0
S       73.05335939    -103.22964242      14.47711265        1        0
S       73.05335939    -103.22964242      11.35000000        2        0
Mo      69.31884521    -103.15670329      12.91355632        0        0
S       70.25466648    -101.57440592      14.47711265        1        0
S       70.25466648    -101.57440592      11.35000000        2        0
Mo      66.52015230    -101.50146679      12.91355632        0        0
S       67.45597356     -99.91916942      14.47711265        1        0
S       67.45597356     -99.91916942      11.35000000        2        0
Mo      63.72145938     -99.84623029      12.91355632        0        0
S       64.65728065     -98.26393292      14.47711265        1        0
S       64.65728065     -98.26393292      11.35000000        2        0
Mo      60.92276647     -98.19099379      12.91355632        0        0
S       61.85858774     -96.60869642      14.47711265        1        0
S       61.85858774     -96.60869642      11.35000000        2        0
Mo      58.12407356     -96.53575729      12.91355632        0        0
S       59.05989482     -94.95345992      14.47711265        1        0
S       59.05989482     -94.95345992      11.35000000        2        0
Mo      55.32538064     -94.88052079      12.91355632        0        0
S       56.26120191     -93.29822342      14.47711265        1        0
S       56.26120191     -93.29822342      11.35000000        2        0
Mo     207.41044921     -93.22528429      12.91355632        0        0
S       53.46250900     -91.64298692      14.47711265        1        0
S       53.46250900     -91.64298692      11.35000000        2        0
Mo     204.61175629     -91.57004779      12.91355632        0        0
S      205.54757756     -89.98775042      14.47711265        1        0
S      205.54757756     -89.98775042      11.35000000        2        0
Mo      50.68364605      -0.53204030      12.91355632        0        0
S      129.06134806    -133.08301501      14.47711265        1        0
S      129.06134806    -133.08301501      11.35000000        2        0
Mo     125.32683388    -133.01007588      12.91355632        0        0
S      126.26265515    -131.42777851      14.47711265        1        0
S      126.26265515    -131.42777851      11.35000000        2        0
Mo     122.52814097    -131.35483938      12.91355632        0        0
S      123.46396223    -129.77254201      14.47711265        1        0
S      123.46396223    -129.77254201      11.35000000        2        0
Mo     119.72944805    -129.69960288      12.91355632        0        0
S      120.66526932    -128.11730551      14.47711265        1        0
S      120.66526932    -128.11730551      11.35000000        2        0
Mo     116.93075514    -128.04436638      12.91355632        0        0
S      117.86657641    -126.46206901      14.47711265        1        0
S      117.86657641    -126.46206901      11.35000000        2        0
Mo     114.13206223    -126.38912988      12.91355632        0        0
S      115.06788349    -124.80683251      14.47711265        1        0
S      115.06788349    -124.80683251      11.35000000        2        0
Mo     111.33336931    -124.73389338      12.91355632        0        0
S      112.26919058    -123.15159601      14.47711265        1        0
S      112.26919058    -123.15159601      11.35000000        2        0
Mo     108.53467640    -123.07865688      12.91355632        0        0
S      109.47049767    -121.49635951      14.47711265        1        0
S      109.47049767    -121.49635951      11.35000000        2        0
Mo     105.73598349    -121.42342038      12.91355632        0        0
S      106.67180475    -119.84112301      14.47711265        1        0
S      106.67180475    -119.84112301      11.35000000        2        0
Mo     102.93729057    -119.76818388      12.91355632        0        0
S      103.87311184    -118.18588651      14.47711265        1        0
S      103.87311184    -118.18588651      11.35000000        2        0
Mo     100.13859766    -118.11294738      12.91355632        0        0
S      101.07441893    -116.53065001      14.47711265        1        0
S      101.07441893    -116.53065001      11.35000000        2        0
Mo      97.33990475    -116.45771088      12.91355632        0        0
S       98.27572601    -114.87541351      14.47711265        1        0
S       98.27572601    -114.87541351      11.35000000        2        0
Mo      94.54121183    -114.80247438      12.91355632        0        0
S       95.47703310    -113.22017701      14.47711265        1        0
S       95.47703310    -113.22017701      11.35000000        2        0
Mo      91.74251892    -113.14723788      12.91355632        0        0
S       92.67834019    -111.56494051      14.47711265        1        0
S       92.67834019    -111.56494051      11.35000000        2        0
Mo      88.94382601    -111.49200138      12.91355632        0        0
S       89.87964727    -109.90970401      14.47711265        1        0
S       89.87964727    -109.90970401      11.35000000        2        0
Mo      86.14513309    -109.83676488      12.91355632        0        0
S       87.08095436    -108.25446751      14.47711265        1        0
S       87.08095436    -108.25446751      11.35000000        2        0
Mo      83.34644018    -108.18152838      12.91355632        0        0
S       84.28226145    -106.59923101      14.47711265        1        0
S       84.28226145    -106.59923101      11.35000000        2        0
Mo      80.54774727    -106.52629188      12.91355632        0        0
S       81.48356853    -104.94399451      14.47711265        1        0
S       81.48356853    -104.94399451      11.35000000        2        0
Mo      77.74905435    -104.87105538      12.91355632        0        0
S       78.68487562    -103.28875801      14.47711265        1        0
S       78.68487562    -103.28875801      11.35000000        2        0
Mo      74.95036144    -103.21581888      12.91355632        0        0
S       75.88618270    -101.63352151      14.47711265        1        0
S       75.88618270    -101.63352151      11.35000000        2        0
Mo      72.15166852    -101.56058238      12.91355632        0        0
S       73.08748979     -99.97828501      14.47711265        1        0
S       73.08748979     -99.97828501      11.35000000        2        0
Mo      69.35297561     -99.90534588      12.91355632        0        0
S       70.28879688     -98.32304851      14.47711265        1        0
S       70.28879688     -98.32304851      11.35000000        2        0
Mo      66.55428270     -98.25010938      12.91355632        0        0
S       67.49010396     -96.66781201      14.47711265        1        0
S       67.49010396     -96.66781201      11.35000000        2        0
Mo      63.75558978     -96.59487288      12.91355632        0        0
S       64.69141105     -95.01257551      14.47711265        1        0
S       64.69141105     -95.01257551      11.35000000        2        0
Mo      60.95689687     -94.93963638      12.91355632        0        0
S       61.89271814     -93.35733901      14.47711265        1        0
S       61.89271814     -93.35733901      11.35000000        2        0
Mo      58.15820396     -93.28439988      12.91355632        0        0
S       59.09402522     -91.70210251      14.47711265        1        0
S       59.09402522     -91.70210251      11.35000000        2        0
Mo      55.35951104     -91.62916338      12.91355632        0        0
S       56.29533231     -90.04686601      14.47711265        1        0
S       56.29533231     -90.04686601      11.35000000        2        0
Mo      52.56081813     -89.97392688      12.91355632        0        0
S       53.49663940     -88.39162951      14.47711265        1        0
S       53.49663940     -88.39162951      11.35000000        2        0
Mo     204.64588670     -88.31869038      12.91355632        0        0
S       50.69794648     -86.73639301      14.47711265        1        0
S       50.69794648     -86.73639301      11.35000000        2        0
Mo     201.84719378     -86.66345388      12.91355632        0        0
S      202.78301505     -85.08115651      14.47711265        1        0
S      202.78301505     -85.08115651      11.35000000        2        0
Mo      56.31516228      -0.59115589      12.91355632        0        0
S      134.69286429    -133.14213060      14.47711265        1        0
S      134.69286429    -133.14213060      11.35000000        2        0
Mo     130.95835011    -133.06919147      12.91355632        0        0
S      131.89417138    -131.48689410      14.47711265        1        0
S      131.89417138    -131.48689410      11.35000000        2        0
Mo     128.15965720    -131.41395497      12.91355632        0        0
S      129.09547846    -129.83165760      14.47711265        1        0
S      129.09547846    -129.83165760      11.35000000        2        0
Mo     125.36096428    -129.75871847      12.91355632        0        0
S      126.29678555    -128.17642110      14.47711265        1        0
S      126.29678555    -128.17642110      11.35000000        2        0
Mo     122.56227137    -128.10348197      12.91355632        0        0
S      123.49809263    -126.52118460      14.47711265        1        0
S      123.49809263    -126.52118460      11.35000000        2        0
Mo     119.76357846    -126.44824547      12.91355632        0        0
S      120.69939972    -124.86594810      14.47711265        1        0
S      120.69939972    -124.86594810      11.35000000        2        0
Mo     116.96488554    -124.79300897      12.91355632        0        0
S      117.90070681    -123.21071160      14.47711265        1        0
S      117.90070681    -123.21071160      11.35000000        2        0
Mo     114.16619263    -123.13777247      12.91355632        0        0
S      115.10201389    -121.55547510      14.47711265        1        0
S      115.10201389    -121.55547510      11.35000000        2        0
Mo     111.36749971    -121.48253597      12.91355632        0        0
S      112.30332098    -119.90023860      14.47711265        1        0
S      112.30332098    -119.90023860      11.35000000        2        0
Mo     108.56880680    -119.82729947      12.91355632        0        0
S      109.50462807    -118.24500210      14.47711265        1        0
S      109.50462807    -118.24500210      11.35000000        2        0
Mo     105.77011389    -118.17206297      12.91355632        0        0
S      106.70593515    -116.58976560      14.47711265        1        0
S      106.70593515    -116.58976560      11.35000000        2        0
Mo     102.97142097    -116.51682647      12.91355632        0        0
S      103.90724224    -114.93452910      14.47711265        1        0
S      103.90724224    -114.93452910      11.35000000        2        0
Mo     100.17272806    -114.86158997      12.91355632        0        0
S      101.10854933    -113.27929260      14.47711265        1        0
S      101.10854933    -113.27929260      11.35000000        2        0
Mo      97.37403515    -113.20635347      12.91355632        0        0
S       98.30985641    -111.62405610      14.47711265        1        0
S       98.30985641    -111.62405610      11.35000000        2        0
Mo      94.57534223    -111.55111697      12.91355632        0        0
S       95.51116350    -109.96881960      14.47711265        1        0
S       95.51116350    -109.96881960      11.35000000        2        0
Mo      91.77664932    -109.89588047      12.91355632        0        0
S       92.71247059    -108.31358310      14.47711265        1        0
S       92.71247059    -108.31358310      11.35000000        2        0
Mo      88.97795641    -108.24064397      12.91355632        0        0
S       89.91377767    -106.65834660      14.47711265        1        0
S       89.91377767    -106.65834660      11.35000000        2        0
Mo      86.17926349    -106.58540747      12.91355632        0        0
S       87.11508476    -105.00311010      14.47711265        1        0
S       87.11508476    -105.00311010      11.35000000        2        0
Mo      83.38057058    -104.93017097      12.91355632        0        0
S       84.31639185    -103.34787360      14.47711265        1        0
S       84.31639185    -103.34787360      11.35000000        2        0
Mo      80.58187767    -103.27493447      12.91355632        0        0
S       81.51769893    -101.69263710      14.47711265        1        0
S       81.51769893    -101.69263710      11.35000000        2        0
Mo      77.78318475    -101.61969797      12.91355632        0        0
S       78.71900602    -100.03740060      14.47711265        1        0
S       78.71900602    -100.03740060      11.35000000        2        0
Mo      74.98449184     -99.96446147      12.91355632        0        0
S       75.92031311     -98.38216410      14.47711265        1        0
S       75.92031311     -98.38216410      11.35000000        2        0
Mo      72.18579893     -98.30922497      12.91355632        0        0
S       73.12162019     -96.72692760      14.47711265        1        0
S       73.12162019     -96.72692760      11.35000000        2        0
Mo      69.38710601     -96.65398847      12.91355632        0        0
S       70.32292728     -95.07169110      14.47711265        1        0
S       70.32292728     -95.07169110      11.35000000        2        0
Mo      66.58841310     -94.99875197      12.91355632        0        0
S       67.52423437     -93.41645460      14.47711265        1        0
S       67.52423437     -93.41645460      11.35000000        2        0
Mo      63.78972019     -93.34351547      12.91355632        0        0
S       64.72554145     -91.76121810      14.47711265        1        0
S       64.72554145     -91.76121810      11.35000000        2        0
Mo      60.99102727     -91.68827897      12.91355632        0        0
S       61.92684854     -90.10598160      14.47711265        1        0
S       61.92684854     -90.10598160      11.35000000        2        0
Mo      58.19233436     -90.03304247      12.91355632        0        0
S       59.12815563     -88.45074510      14.47711265        1        0
S       59.12815563     -88.45074510      11.35000000        2        0
Mo      55.39364145     -88.37780597      12.91355632        0        0
S       56.32946271     -86.79550860      14.47711265        1        0
S       56.32946271     -86.79550860      11.35000000        2        0
Mo      52.59494853     -86.72256947      12.91355632        0        0
S       53.53076980     -85.14027210      14.47711265        1        0
S       53.53076980     -85.14027210      11.35000000        2        0
Mo      49.79625562     -85.06733297      12.91355632        0        0
S       50.73207689     -83.48503560      14.47711265        1        0
S       50.73207689     -83.48503560      11.35000000        2        0
Mo     201.88132418     -83.41209647      12.91355632        0        0
S       47.93338397     -81.82979910      14.47711265        1        0
S       47.93338397     -81.82979910      11.35000000        2        0
Mo     199.08263127     -81.75685997      12.91355632        0        0
S      200.01845254     -80.17456260      14.47711265        1        0
S      200.01845254     -80.17456260      11.35000000        2        0
Mo      61.94667851      -0.65027148      12.91355632        0        0
S      140.32438052    -133.20124618      14.47711265        1        0
S      140.32438052    -133.20124618      11.35000000        2        0
Mo     136.58986634    -133.12830706      12.91355632        0        0
S      137.52568760    -131.54600968      14.47711265        1        0
S      137.52568760    -131.54600968      11.35000000        2        0
Mo     133.79117342    -131.47307056      12.91355632        0        0
S      134.72699469    -129.89077318      14.47711265        1        0
S      134.72699469    -129.89077318      11.35000000        2        0
Mo     130.99248051    -129.81783406      12.91355632        0        0
S      131.92830178    -128.23553668      14.47711265        1        0
S      131.92830178    -128.23553668      11.35000000        2        0
Mo     128.19378760    -128.16259756      12.91355632        0        0
S      129.12960886    -126.58030019      14.47711265        1        0
S      129.12960886    -126.58030019      11.35000000        2        0
Mo     125.39509468    -126.50736106      12.91355632        0        0
S      126.33091595    -124.92506369      14.47711265        1        0
S      126.33091595    -124.92506369      11.35000000        2        0
Mo     122.59640177    -124.85212456      12.91355632        0        0
S      123.53222304    -123.26982719      14.47711265        1        0
S      123.53222304    -123.26982719      11.35000000        2        0
Mo     119.79770886    -123.19688806      12.91355632        0        0
S      120.73353012    -121.61459069      14.47711265        1        0
S      120.73353012    -121.61459069      11.35000000        2        0
Mo     116.99901594    -121.54165156      12.91355632        0        0
S      117.93483721    -119.95935419      14.47711265        1        0
S      117.93483721    -119.95935419      11.35000000        2        0
Mo     114.20032303    -119.88641506      12.91355632        0        0
S      115.13614430    -118.30411769      14.47711265        1        0
S      115.13614430    -118.30411769      11.35000000        2        0
Mo     111.40163012    -118.23117856      12.91355632        0        0
S      112.33745138    -116.64888119      14.47711265        1        0
S      112.33745138    -116.64888119      11.35000000        2        0
Mo     108.60293720    -116.57594206      12.91355632        0        0
S      109.53875847    -114.99364469      14.47711265        1        0
S      109.53875847    -114.99364469      11.35000000        2        0
Mo     105.80424429    -114.92070556      12.91355632        0        0
S      106.74006556    -113.33840819      14.47711265        1        0
S      106.74006556    -113.33840819      11.35000000        2        0
Mo     103.00555138    -113.26546906      12.91355632        0        0
S      103.94137264    -111.68317169      14.47711265        1        0
S      103.94137264    -111.68317169      11.35000000        2        0
Mo     100.20685846    -111.61023256      12.91355632        0        0
S      101.14267973    -110.02793519      14.47711265        1        0
S      101.14267973    -110.02793519      11.35000000        2        0
Mo      97.40816555    -109.95499606      12.91355632        0        0
S       98.34398682    -108.37269869      14.47711265        1        0
S       98.34398682    -108.37269869      11.35000000        2        0
Mo      94.60947264    -108.29975956      12.91355632        0        0
S       95.54529390    -106.71746219      14.47711265        1        0
S       95.54529390    -106.71746219      11.35000000        2        0
Mo      91.81077972    -106.64452306      12.91355632        0        0
S       92.74660099    -105.06222569      14.47711265        1        0
S       92.74660099    -105.06222569      11.35000000        2        0
Mo      89.01208681    -104.98928656      12.91355632        0        0
S       89.94790807    -103.40698919      14.47711265        1        0
S       89.94790807    -103.40698919      11.35000000        2        0
Mo      86.21339390    -103.33405006      12.91355632        0        0
S       87.14921516    -101.75175269      14.47711265        1        0
S       87.14921516    -101.75175269      11.35000000        2        0
Mo      83.41470098    -101.67881356      12.91355632        0        0
S       84.35052225    -100.09651619      14.47711265        1        0
S       84.35052225    -100.09651619      11.35000000        2        0
Mo      80.61600807    -100.02357706      12.91355632        0        0
S       81.55182933     -98.44127969      14.47711265        1        0
S       81.55182933     -98.44127969      11.35000000        2        0
Mo      77.81731515     -98.36834056      12.91355632        0        0
S       78.75313642     -96.78604319      14.47711265        1        0
S       78.75313642     -96.78604319      11.35000000        2        0
Mo      75.01862224     -96.71310406      12.91355632        0        0
S       75.95444351     -95.13080669      14.47711265        1        0
S       75.95444351     -95.13080669      11.35000000        2        0
Mo      72.21992933     -95.05786756      12.91355632        0        0
S       73.15575059     -93.47557019      14.47711265        1        0
S       73.15575059     -93.47557019      11.35000000        2        0
Mo      69.42123641     -93.40263106      12.91355632        0        0
S       70.35705768     -91.82033369      14.47711265        1        0
S       70.35705768     -91.82033369      11.35000000        2        0
Mo      66.62254350     -91.74739456      12.91355632        0        0
S       67.55836477     -90.16509719      14.47711265        1        0
S       67.55836477     -90.16509719      11.35000000        2        0
Mo      63.82385059     -90.09215806      12.91355632        0        0
S       64.75967185     -88.50986069      14.47711265        1        0
S       64.75967185     -88.50986069      11.35000000        2        0
Mo      61.02515767     -88.43692156      12.91355632        0        0
S       61.96097894     -86.85462419      14.47711265        1        0
S       61.96097894     -86.85462419      11.35000000        2        0
Mo      58.22646476     -86.78168506      12.91355632        0        0
S       59.16228603     -85.19938769      14.47711265        1        0
S       59.16228603     -85.19938769      11.35000000        2        0
Mo      55.42777185     -85.12644856      12.91355632        0        0
S       56.36359311     -83.54415119      14.47711265        1        0
S       56.36359311     -83.54415119      11.35000000        2        0
Mo      52.62907893     -83.47121206      12.91355632        0        0
S       53.56490020     -81.88891469      14.47711265        1        0
S       53.56490020     -81.88891469      11.35000000        2        0
Mo      49.83038602     -81.81597556      12.91355632        0        0
S       50.76620729     -80.23367819      14.47711265        1        0
S       50.76620729     -80.23367819      11.35000000        2        0
Mo      47.03169311     -80.16073906      12.91355632        0        0
S       47.96751437     -78.57844169      14.47711265        1        0
S       47.96751437     -78.57844169      11.35000000        2        0
Mo     199.11676167     -78.50550256      12.91355632        0        0
S       45.16882146     -76.92320519      14.47711265        1        0
S       45.16882146     -76.92320519      11.35000000        2        0
Mo     196.31806876     -76.85026606      12.91355632        0        0
S      197.25389002     -75.26796869      14.47711265        1        0
S      197.25389002     -75.26796869      11.35000000        2        0
Mo      67.57819474      -0.70938707      12.91355632        0        0
S      145.95589675    -133.26036177      14.47711265        1        0
S      145.95589675    -133.26036177      11.35000000        2        0
Mo     142.22138257    -133.18742265      12.91355632        0        0
S      143.15720383    -131.60512527      14.47711265        1        0
S      143.15720383    -131.60512527      11.35000000        2        0
Mo     139.42268965    -131.53218615      12.91355632        0        0
S      140.35851092    -129.94988877      14.47711265        1        0
S      140.35851092    -129.94988877      11.35000000        2        0
Mo     136.62399674    -129.87694965      12.91355632        0        0
S      137.55981801    -128.29465227      14.47711265        1        0
S      137.55981801    -128.29465227      11.35000000        2        0
Mo     133.82530383    -128.22171315      12.91355632        0        0
S      134.76112509    -126.63941577      14.47711265        1        0
S      134.76112509    -126.63941577      11.35000000        2        0
Mo     131.02661091    -126.56647665      12.91355632        0        0
S      131.96243218    -124.98417927      14.47711265        1        0
S      131.96243218    -124.98417927      11.35000000        2        0
Mo     128.22791800    -124.91124015      12.91355632        0        0
S      129.16373926    -123.32894277      14.47711265        1        0
S      129.16373926    -123.32894277      11.35000000        2        0
Mo     125.42922508    -123.25600365      12.91355632        0        0
S      126.36504635    -121.67370627      14.47711265        1        0
S      126.36504635    -121.67370627      11.35000000        2        0
Mo     122.63053217    -121.60076715      12.91355632        0        0
S      123.56635344    -120.01846978      14.47711265        1        0
S      123.56635344    -120.01846978      11.35000000        2        0
Mo     119.83183926    -119.94553065      12.91355632        0        0
S      120.76766052    -118.36323328      14.47711265        1        0
S      120.76766052    -118.36323328      11.35000000        2        0
Mo     117.03314634    -118.29029415      12.91355632        0        0
S      117.96896761    -116.70799678      14.47711265        1        0
S      117.96896761    -116.70799678      11.35000000        2        0
Mo     114.23445343    -116.63505765      12.91355632        0        0
S      115.17027470    -115.05276028      14.47711265        1        0
S      115.17027470    -115.05276028      11.35000000        2        0
Mo     111.43576052    -114.97982115      12.91355632        0        0
S      112.37158178    -113.39752378      14.47711265        1        0
S      112.37158178    -113.39752378      11.35000000        2        0
Mo     108.63706760    -113.32458465      12.91355632        0        0
S      109.57288887    -111.74228728      14.47711265        1        0
S      109.57288887    -111.74228728      11.35000000        2        0
Mo     105.83837469    -111.66934815      12.91355632        0        0
S      106.77419596    -110.08705078      14.47711265        1        0
S      106.77419596    -110.08705078      11.35000000        2        0
Mo     103.03968178    -110.01411165      12.91355632        0        0
S      103.97550304    -108.43181428      14.47711265        1        0
S      103.97550304    -108.43181428      11.35000000        2        0
Mo     100.24098886    -108.35887515      12.91355632        0        0
S      101.17681013    -106.77657778      14.47711265        1        0
S      101.17681013    -106.77657778      11.35000000        2        0
Mo      97.44229595    -106.70363865      12.91355632        0        0
S       98.37811722    -105.12134128      14.47711265        1        0
S       98.37811722    -105.12134128      11.35000000        2        0
Mo      94.64360304    -105.04840215      12.91355632        0        0
S       95.57942430    -103.46610478      14.47711265        1        0
S       95.57942430    -103.46610478      11.35000000        2        0
Mo      91.84491012    -103.39316565      12.91355632        0        0
S       92.78073139    -101.81086828      14.47711265        1        0
S       92.78073139    -101.81086828      11.35000000        2        0
Mo      89.04621721    -101.73792915      12.91355632        0        0
S       89.98203848    -100.15563178      14.47711265        1        0
S       89.98203848    -100.15563178      11.35000000        2        0
Mo      86.24752430    -100.08269265      12.91355632        0        0
S       87.18334556     -98.50039528      14.47711265        1        0
S       87.18334556     -98.50039528      11.35000000        2        0
Mo      83.44883138     -98.42745615      12.91355632        0        0
S       84.38465265     -96.84515878      14.47711265        1        0
S       84.38465265     -96.84515878      11.35000000        2        0
Mo      80.65013847     -96.77221965      12.91355632        0        0
S       81.58595974     -95.18992228      14.47711265        1        0
S       81.58595974     -95.18992228      11.35000000        2        0
Mo      77.85144556     -95.11698315      12.91355632        0        0
S       78.78726682     -93.53468578      14.47711265        1        0
S       78.78726682     -93.53468578      11.35000000        2        0
Mo      75.05275264     -93.46174665      12.91355632        0        0
S       75.98857391     -91.87944928      14.47711265        1        0
S       75.98857391     -91.87944928      11.35000000        2        0
Mo      72.25405973     -91.80651015      12.91355632        0        0
S       73.18988100     -90.22421278      14.47711265        1        0
S       73.18988100     -90.22421278      11.35000000        2        0
Mo      69.45536682     -90.15127365      12.91355632        0        0
S       70.39118808     -88.56897628      14.47711265        1        0
S       70.39118808     -88.56897628      11.35000000        2        0
Mo      66.65667390     -88.49603715      12.91355632        0        0
S       67.59249517     -86.91373978      14.47711265        1        0
S       67.59249517     -86.91373978      11.35000000        2        0
Mo      63.85798099     -86.84080065      12.91355632        0        0
S       64.79380226     -85.25850328      14.47711265        1        0
S       64.79380226     -85.25850328      11.35000000        2        0
Mo      61.05928808     -85.18556415      12.91355632        0        0
S       61.99510934     -83.60326678      14.47711265        1        0
S       61.99510934     -83.60326678      11.35000000        2        0
Mo      58.26059516     -83.53032765      12.91355632        0        0
S       59.19641643     -81.94803028      14.47711265        1        0
S       59.19641643     -81.94803028      11.35000000        2        0
Mo      55.46190225     -81.87509115      12.91355632        0        0
S       56.39772351     -80.29279378      14.47711265        1        0
S       56.39772351     -80.29279378      11.35000000        2        0
Mo      52.66320933     -80.21985465      12.91355632        0        0
S       53.59903060     -78.63755728      14.47711265        1        0
S       53.59903060     -78.63755728      11.35000000        2        0
Mo      49.86451642     -78.56461815      12.91355632        0        0
S       50.80033769     -76.98232078      14.47711265        1        0
S       50.80033769     -76.98232078      11.35000000        2        0
Mo      47.06582351     -76.90938165      12.91355632        0        0
S       48.00164477     -75.32708428      14.47711265        1        0
S       48.00164477     -75.32708428      11.35000000        2        0
Mo      44.26713059     -75.25414515      12.91355632        0        0
S       45.20295186     -73.67184778      14.47711265        1        0
S       45.20295186     -73.67184778      11.35000000        2        0
Mo     196.35219916     -73.59890865      12.91355632        0        0
S       42.40425895     -72.01661128      14.47711265        1        0
S       42.40425895     -72.01661128      11.35000000        2        0
Mo     193.55350625     -71.94367215      12.91355632        0        0
S      194.48932751     -70.36137478      14.47711265        1        0
S      194.48932751     -70.36137478      11.35000000        2        0
Mo      73.20971097      -0.76850266      12.91355632        0        0
S      151.58741297    -133.31947736      14.47711265        1        0
S      151.58741297    -133.31947736      11.35000000        2        0
Mo     147.85289879    -133.24653824      12.91355632        0        0
S      148.78872006    -131.66424086      14.47711265        1        0
S      148.78872006    -131.66424086      11.35000000        2        0
Mo     145.05420588    -131.59130174      12.91355632        0        0
S      145.99002715    -130.00900436      14.47711265        1        0
S      145.99002715    -130.00900436      11.35000000        2        0
Mo     142.25551297    -129.93606524      12.91355632        0        0
S      143.19133423    -128.35376786      14.47711265        1        0
S      143.19133423    -128.35376786      11.35000000        2        0
Mo     139.45682005    -128.28082874      12.91355632        0        0
S      140.39264132    -126.69853136      14.47711265        1        0
S      140.39264132    -126.69853136      11.35000000        2        0
Mo     136.65812714    -126.62559224      12.91355632        0        0
S      137.59394841    -125.04329486      14.47711265        1        0
S      137.59394841    -125.04329486      11.35000000        2        0
Mo     133.85943423    -124.97035574      12.91355632        0        0
S      134.79525549    -123.38805836      14.47711265        1        0
S      134.79525549    -123.38805836      11.35000000        2        0
Mo     131.06074131    -123.31511924      12.91355632        0        0
S      131.99656258    -121.73282186      14.47711265        1        0
S      131.99656258    -121.73282186      11.35000000        2        0
Mo     128.26204840    -121.65988274      12.91355632        0        0
S      129.19786967    -120.07758536      14.47711265        1        0
S      129.19786967    -120.07758536      11.35000000        2        0
Mo     125.46335549    -120.00464624      12.91355632        0        0
S      126.39917675    -118.42234886      14.47711265        1        0
S      126.39917675    -118.42234886      11.35000000        2        0
Mo     122.66466257    -118.34940974      12.91355632        0        0
S      123.60048384    -116.76711236      14.47711265        1        0
S      123.60048384    -116.76711236      11.35000000        2        0
Mo     119.86596966    -116.69417324      12.91355632        0        0
S      120.80179093    -115.11187586      14.47711265        1        0
S      120.80179093    -115.11187586      11.35000000        2        0
Mo     117.06727675    -115.03893674      12.91355632        0        0
S      118.00309801    -113.45663937      14.47711265        1        0
S      118.00309801    -113.45663937      11.35000000        2        0
Mo     114.26858383    -113.38370024      12.91355632        0        0
S      115.20440510    -111.80140287      14.47711265        1        0
S      115.20440510    -111.80140287      11.35000000        2        0
Mo     111.46989092    -111.72846374      12.91355632        0        0
S      112.40571219    -110.14616637      14.47711265        1        0
S      112.40571219    -110.14616637      11.35000000        2        0
Mo     108.67119801    -110.07322724      12.91355632        0        0
S      109.60701927    -108.49092987      14.47711265        1        0
S      109.60701927    -108.49092987      11.35000000        2        0
Mo     105.87250509    -108.41799074      12.91355632        0        0
S      106.80832636    -106.83569337      14.47711265        1        0
S      106.80832636    -106.83569337      11.35000000        2        0
Mo     103.07381218    -106.76275424      12.91355632        0        0
S      104.00963344    -105.18045687      14.47711265        1        0
S      104.00963344    -105.18045687      11.35000000        2        0
Mo     100.27511927    -105.10751774      12.91355632        0        0
S      101.21094053    -103.52522037      14.47711265        1        0
S      101.21094053    -103.52522037      11.35000000        2        0
Mo      97.47642635    -103.45228124      12.91355632        0        0
S       98.41224762    -101.86998387      14.47711265        1        0
S       98.41224762    -101.86998387      11.35000000        2        0
Mo      94.67773344    -101.79704474      12.91355632        0        0
S       95.61355470    -100.21474737      14.47711265        1        0
S       95.61355470    -100.21474737      11.35000000        2        0
Mo      91.87904052    -100.14180824      12.91355632        0        0
S       92.81486179     -98.55951087      14.47711265        1        0
S       92.81486179     -98.55951087      11.35000000        2        0
Mo      89.08034761     -98.48657174      12.91355632        0        0
S       90.01616888     -96.90427437      14.47711265        1        0
S       90.01616888     -96.90427437      11.35000000        2        0
Mo      86.28165470     -96.83133524      12.91355632        0        0
S       87.21747596     -95.24903787      14.47711265        1        0
S       87.21747596     -95.24903787      11.35000000        2        0
Mo      83.48296178     -95.17609874      12.91355632        0        0
S       84.41878305     -93.59380137      14.47711265        1        0
S       84.41878305     -93.59380137      11.35000000        2        0
Mo      80.68426887     -93.52086224      12.91355632        0        0
S       81.62009014     -91.93856487      14.47711265        1        0
S       81.62009014     -91.93856487      11.35000000        2        0
Mo      77.88557596     -91.86562574      12.91355632        0        0
S       78.82139722     -90.28332837      14.47711265        1        0
S       78.82139722     -90.28332837      11.35000000        2        0
Mo      75.08688304     -90.21038924      12.91355632        0        0
S       76.02270431     -88.62809187      14.47711265        1        0
S       76.02270431     -88.62809187      11.35000000        2        0
Mo      72.28819013     -88.55515274      12.91355632        0        0
S       73.22401140     -86.97285537      14.47711265        1        0
S       73.22401140     -86.97285537      11.35000000        2        0
Mo      69.48949722     -86.89991624      12.91355632        0        0
S       70.42531848     -85.31761887      14.47711265        1        0
S       70.42531848     -85.31761887      11.35000000        2        0
Mo      66.69080430     -85.24467974      12.91355632        0        0
S       67.62662557     -83.66238237      14.47711265        1        0
S       67.62662557     -83.66238237      11.35000000        2        0
Mo      63.89211139     -83.58944324      12.91355632        0        0
S       64.82793266     -82.00714587      14.47711265        1        0
S       64.82793266     -82.00714587      11.35000000        2        0
Mo      61.09341848     -81.93420674      12.91355632        0        0
S       62.02923974     -80.35190937      14.47711265        1        0
S       62.02923974     -80.35190937      11.35000000        2        0
Mo      58.29472556     -80.27897024      12.91355632        0        0
S       59.23054683     -78.69667287      14.47711265        1        0
S       59.23054683     -78.69667287      11.35000000        2        0
Mo      55.49603265     -78.62373374      12.91355632        0        0
S       56.43185392     -77.04143637      14.47711265        1        0
S       56.43185392     -77.04143637      11.35000000        2        0
Mo      52.69733974     -76.96849724      12.91355632        0        0
S       53.63316100     -75.38619987      14.47711265        1        0
S       53.63316100     -75.38619987      11.35000000        2        0
Mo      49.89864682     -75.31326074      12.91355632        0        0
S       50.83446809     -73.73096337      14.47711265        1        0
S       50.83446809     -73.73096337      11.35000000        2        0
Mo      47.09995391     -73.65802424      12.91355632        0        0
S       48.03577518     -72.07572687      14.47711265        1        0
S       48.03577518     -72.07572687      11.35000000        2        0
Mo      44.30126100     -72.00278774      12.91355632        0        0
S       45.23708226     -70.42049037      14.47711265        1        0
S       45.23708226     -70.42049037      11.35000000        2        0
Mo      41.50256808     -70.34755124      12.91355632        0        0
S       42.43838935     -68.76525387      14.47711265        1        0
S       42.43838935     -68.76525387      11.35000000        2        0
Mo     193.58763665     -68.69231474      12.91355632        0        0
S       39.63969644     -67.11001737      14.47711265        1        0
S       39.63969644     -67.11001737      11.35000000        2        0
Mo     190.78894373     -67.03707824      12.91355632        0        0
S      191.72476500     -65.45478087      14.47711265        1        0
S      191.72476500     -65.45478087      11.35000000        2        0
Mo      78.84122720      -0.82761825      12.91355632        0        0
S      157.21892920    -133.37859295      14.47711265        1        0
S      157.21892920    -133.37859295      11.35000000        2        0
Mo     153.48441502    -133.30565382      12.91355632        0        0
S      154.42023629    -131.72335645      14.47711265        1        0
S      154.42023629    -131.72335645      11.35000000        2        0
Mo     150.68572211    -131.65041732      12.91355632        0        0
S      151.62154338    -130.06811995      14.47711265        1        0
S      151.62154338    -130.06811995      11.35000000        2        0
Mo     147.88702920    -129.99518082      12.91355632        0        0
S      148.82285046    -128.41288345      14.47711265        1        0
S      148.82285046    -128.41288345      11.35000000        2        0
Mo     145.08833628    -128.33994433      12.91355632        0        0
S      146.02415755    -126.75764695      14.47711265        1        0
S      146.02415755    -126.75764695      11.35000000        2        0
Mo     142.28964337    -126.68470783      12.91355632        0        0
S      143.22546463    -125.10241045      14.47711265        1        0
S      143.22546463    -125.10241045      11.35000000        2        0
Mo     139.49095045    -125.02947133      12.91355632        0        0
S      140.42677172    -123.44717395      14.47711265        1        0
S      140.42677172    -123.44717395      11.35000000        2        0
Mo     136.69225754    -123.37423483      12.91355632        0        0
S      137.62807881    -121.79193745      14.47711265        1        0
S      137.62807881    -121.79193745      11.35000000        2        0
Mo     133.89356463    -121.71899833      12.91355632        0        0
S      134.82938589    -120.13670095      14.47711265        1        0
S      134.82938589    -120.13670095      11.35000000        2        0
Mo     131.09487171    -120.06376183      12.91355632        0        0
S      132.03069298    -118.48146445      14.47711265        1        0
S      132.03069298    -118.48146445      11.35000000        2        0
Mo     128.29617880    -118.40852533      12.91355632        0        0
S      129.23200007    -116.82622795      14.47711265        1        0
S      129.23200007    -116.82622795      11.35000000        2        0
Mo     125.49748589    -116.75328883      12.91355632        0        0
S      126.43330715    -115.17099145      14.47711265        1        0
S      126.43330715    -115.17099145      11.35000000        2        0
Mo     122.69879297    -115.09805233      12.91355632        0        0
S      123.63461424    -113.51575495      14.47711265        1        0
S      123.63461424    -113.51575495      11.35000000        2        0
Mo     119.90010006    -113.44281583      12.91355632        0        0
S      120.83592133    -111.86051845      14.47711265        1        0
S      120.83592133    -111.86051845      11.35000000        2        0
Mo     117.10140715    -111.78757933      12.91355632        0        0
S      118.03722841    -110.20528195      14.47711265        1        0
S      118.03722841    -110.20528195      11.35000000        2        0
Mo     114.30271423    -110.13234283      12.91355632        0        0
S      115.23853550    -108.55004545      14.47711265        1        0
S      115.23853550    -108.55004545      11.35000000        2        0
Mo     111.50402132    -108.47710633      12.91355632        0        0
S      112.43984259    -106.89480896      14.47711265        1        0
S      112.43984259    -106.89480896      11.35000000        2        0
Mo     108.70532841    -106.82186983      12.91355632        0        0
S      109.64114967    -105.23957246      14.47711265        1        0
S      109.64114967    -105.23957246      11.35000000        2        0
Mo     105.90663549    -105.16663333      12.91355632        0        0
S      106.84245676    -103.58433596      14.47711265        1        0
S      106.84245676    -103.58433596      11.35000000        2        0
Mo     103.10794258    -103.51139683      12.91355632        0        0
S      104.04376385    -101.92909946      14.47711265        1        0
S      104.04376385    -101.92909946      11.35000000        2        0
Mo     100.30924967    -101.85616033      12.91355632        0        0
S      101.24507093    -100.27386296      14.47711265        1        0
S      101.24507093    -100.27386296      11.35000000        2        0
Mo      97.51055675    -100.20092383      12.91355632        0        0
S       98.44637802     -98.61862646      14.47711265        1        0
S       98.44637802     -98.61862646      11.35000000        2        0
Mo      94.71186384     -98.54568733      12.91355632        0        0
S       95.64768511     -96.96338996      14.47711265        1        0
S       95.64768511     -96.96338996      11.35000000        2        0
Mo      91.91317093     -96.89045083      12.91355632        0        0
S       92.84899219     -95.30815346      14.47711265        1        0
S       92.84899219     -95.30815346      11.35000000        2        0
Mo      89.11447801     -95.23521433      12.91355632        0        0
S       90.05029928     -93.65291696      14.47711265        1        0
S       90.05029928     -93.65291696      11.35000000        2        0
Mo      86.31578510     -93.57997783      12.91355632        0        0
S       87.25160637     -91.99768046      14.47711265        1        0
S       87.25160637     -91.99768046      11.35000000        2        0
Mo      83.51709219     -91.92474133      12.91355632        0        0
S       84.45291345     -90.34244396      14.47711265        1        0
S       84.45291345     -90.34244396      11.35000000        2        0
Mo      80.71839927     -90.26950483      12.91355632        0        0
S       81.65422054     -88.68720746      14.47711265        1        0
S       81.65422054     -88.68720746      11.35000000        2        0
Mo      77.91970636     -88.61426833      12.91355632        0        0
S       78.85552763     -87.03197096      14.47711265        1        0
S       78.85552763     -87.03197096      11.35000000        2        0
Mo      75.12101345     -86.95903183      12.91355632        0        0
S       76.05683471     -85.37673446      14.47711265        1        0
S       76.05683471     -85.37673446      11.35000000        2        0
Mo      72.32232053     -85.30379533      12.91355632        0        0
S       73.25814180     -83.72149796      14.47711265        1        0
S       73.25814180     -83.72149796      11.35000000        2        0
Mo      69.52362762     -83.64855883      12.91355632        0        0
S       70.45944888     -82.06626146      14.47711265        1        0
S       70.45944888     -82.06626146      11.35000000        2        0
Mo      66.72493470     -81.99332233      12.91355632        0        0
S       67.66075597     -80.41102496      14.47711265        1        0
S       67.66075597     -80.41102496      11.35000000        2        0
Mo      63.92624179     -80.33808583      12.91355632        0        0
S       64.86206306     -78.75578846      14.47711265        1        0
S       64.86206306     -78.75578846      11.35000000        2        0
Mo      61.12754888     -78.68284933      12.91355632        0        0
S       62.06337014     -77.10055196      14.47711265        1        0
S       62.06337014     -77.10055196      11.35000000        2        0
Mo      58.32885596     -77.02761283      12.91355632        0        0
S       59.26467723     -75.44531546      14.47711265        1        0
S       59.26467723     -75.44531546      11.35000000        2        0
Mo      55.53016305     -75.37237633      12.91355632        0        0
S       56.46598432     -73.79007896      14.47711265        1        0
S       56.46598432     -73.79007896      11.35000000        2        0
Mo      52.73147014     -73.71713983      12.91355632        0        0
S       53.66729140     -72.13484246      14.47711265        1        0
S       53.66729140     -72.13484246      11.35000000        2        0
Mo      49.93277722     -72.06190333      12.91355632        0        0
S       50.86859849     -70.47960596      14.47711265        1        0
S       50.86859849     -70.47960596      11.35000000        2        0
Mo      47.13408431     -70.40666683      12.91355632        0        0
S       48.06990558     -68.82436946      14.47711265        1        0
S       48.06990558     -68.82436946      11.35000000        2        0
Mo      44.33539140     -68.75143033      12.91355632        0        0
S       45.27121266     -67.16913296      14.47711265        1        0
S       45.27121266     -67.16913296      11.35000000        2        0
Mo      41.53669848     -67.09619383      12.91355632        0        0
S       42.47251975     -65.51389646      14.47711265        1        0
S       42.47251975     -65.51389646      11.35000000        2        0
Mo      38.73800557     -65.44095733      12.91355632        0        0
S       39.67382684     -63.85865996      14.47711265        1        0
S       39.67382684     -63.85865996      11.35000000        2        0
Mo     190.82307414     -63.78572083      12.91355632        0        0
S       36.87513392     -62.20342346      14.47711265        1        0
S       36.87513392     -62.20342346      11.35000000        2        0
Mo     188.02438122     -62.13048433      12.91355632        0        0
S      188.96020249     -60.54818696      14.47711265        1        0
S      188.96020249     -60.54818696      11.35000000        2        0
Mo      84.47274342      -0.88673384      12.91355632        0        0
S      162.85044543    -133.43770854      14.47711265        1        0
S      162.85044543    -133.43770854      11.35000000        2        0
Mo     159.11593125    -133.36476941      12.91355632        0        0
S      160.05175252    -131.78247204      14.47711265        1        0
S      160.05175252    -131.78247204      11.35000000        2        0
Mo     156.31723834    -131.70953291      12.91355632        0        0
S      157.25305960    -130.12723554      14.47711265        1        0
S      157.25305960    -130.12723554      11.35000000        2        0
Mo     153.51854542    -130.05429641      12.91355632        0        0
S      154.45436669    -128.47199904      14.47711265        1        0
S      154.45436669    -128.47199904      11.35000000        2        0
Mo     150.71985251    -128.39905991      12.91355632        0        0
S      151.65567378    -126.81676254      14.47711265        1        0
S      151.65567378    -126.81676254      11.35000000        2        0
Mo     147.92115960    -126.74382341      12.91355632        0        0
S      148.85698086    -125.16152604      14.47711265        1        0
S      148.85698086    -125.16152604      11.35000000        2        0
Mo     145.12246668    -125.08858691      12.91355632        0        0
S      146.05828795    -123.50628954      14.47711265        1        0
S      146.05828795    -123.50628954      11.35000000        2        0
Mo     142.32377377    -123.43335041      12.91355632        0        0
S      143.25959504    -121.85105304      14.47711265        1        0
S      143.25959504    -121.85105304      11.35000000        2        0
Mo     139.52508086    -121.77811392      12.91355632        0        0
S      140.46090212    -120.19581654      14.47711265        1        0
S      140.46090212    -120.19581654      11.35000000        2        0
Mo     136.72638794    -120.12287742      12.91355632        0        0
S      137.66220921    -118.54058004      14.47711265        1        0
S      137.66220921    -118.54058004      11.35000000        2        0
Mo     133.92769503    -118.46764092      12.91355632        0        0
S      134.86351630    -116.88534354      14.47711265        1        0
S      134.86351630    -116.88534354      11.35000000        2        0
Mo     131.12900212    -116.81240442      12.91355632        0        0
S      132.06482338    -115.23010704      14.47711265        1        0
S      132.06482338    -115.23010704      11.35000000        2        0
Mo     128.33030920    -115.15716792      12.91355632        0        0
S      129.26613047    -113.57487054      14.47711265        1        0
S      129.26613047    -113.57487054      11.35000000        2        0
Mo     125.53161629    -113.50193142      12.91355632        0        0
S      126.46743756    -111.91963404      14.47711265        1        0
S      126.46743756    -111.91963404      11.35000000        2        0
Mo     122.73292338    -111.84669492      12.91355632        0        0
S      123.66874464    -110.26439754      14.47711265        1        0
S      123.66874464    -110.26439754      11.35000000        2        0
Mo     119.93423046    -110.19145842      12.91355632        0        0
S      120.87005173    -108.60916104      14.47711265        1        0
S      120.87005173    -108.60916104      11.35000000        2        0
Mo     117.13553755    -108.53622192      12.91355632        0        0
S      118.07135882    -106.95392454      14.47711265        1        0
S      118.07135882    -106.95392454      11.35000000        2        0
Mo     114.33684464    -106.88098542      12.91355632        0        0
S      115.27266590    -105.29868804      14.47711265        1        0
S      115.27266590    -105.29868804      11.35000000        2        0
Mo     111.53815172    -105.22574892      12.91355632        0        0
S      112.47397299    -103.64345154      14.47711265        1        0
S      112.47397299    -103.64345154      11.35000000        2        0
Mo     108.73945881    -103.57051242      12.91355632        0        0
S      109.67528007    -101.98821504      14.47711265        1        0
S      109.67528007    -101.98821504      11.35000000        2        0
Mo     105.94076589    -101.91527592      12.91355632        0        0
S      106.87658716    -100.33297855      14.47711265        1        0
S      106.87658716    -100.33297855      11.35000000        2        0
Mo     103.14207298    -100.26003942      12.91355632        0        0
S      104.07789425     -98.67774205      14.47711265        1        0
S      104.07789425     -98.67774205      11.35000000        2        0
Mo     100.34338007     -98.60480292      12.91355632        0        0
S      101.27920133     -97.02250555      14.47711265        1        0
S      101.27920133     -97.02250555      11.35000000        2        0
Mo      97.54468715     -96.94956642      12.91355632        0        0
S       98.48050842     -95.36726905      14.47711265        1        0
S       98.48050842     -95.36726905      11.35000000        2        0
Mo      94.74599424     -95.29432992      12.91355632        0        0
S       95.68181551     -93.71203255      14.47711265        1        0
S       95.68181551     -93.71203255      11.35000000        2        0
Mo      91.94730133     -93.63909342      12.91355632        0        0
S       92.88312259     -92.05679605      14.47711265        1        0
S       92.88312259     -92.05679605      11.35000000        2        0
Mo      89.14860841     -91.98385692      12.91355632        0        0
S       90.08442968     -90.40155955      14.47711265        1        0
S       90.08442968     -90.40155955      11.35000000        2        0
Mo      86.34991550     -90.32862042      12.91355632        0        0
S       87.28573677     -88.74632305      14.47711265        1        0
S       87.28573677     -88.74632305      11.35000000        2        0
Mo      83.55122259     -88.67338392      12.91355632        0        0
S       84.48704385     -87.09108655      14.47711265        1        0
S       84.48704385     -87.09108655      11.35000000        2        0
Mo      80.75252967     -87.01814742      12.91355632        0        0
S       81.68835094     -85.43585005      14.47711265        1        0
S       81.68835094     -85.43585005      11.35000000        2        0
Mo      77.95383676     -85.36291092      12.91355632        0        0
S       78.88965803     -83.78061355      14.47711265        1        0
S       78.88965803     -83.78061355      11.35000000        2        0
Mo      75.15514385     -83.70767442      12.91355632        0        0
S       76.09096511     -82.12537705      14.47711265        1        0
S       76.09096511     -82.12537705      11.35000000        2        0
Mo      72.35645093     -82.05243792      12.91355632        0        0
S       73.29227220     -80.47014055      14.47711265        1        0
S       73.29227220     -80.47014055      11.35000000        2        0
Mo      69.55775802     -80.39720142      12.91355632        0        0
S       70.49357929     -78.81490405      14.47711265        1        0
S       70.49357929     -78.81490405      11.35000000        2        0
Mo      66.75906511     -78.74196492      12.91355632        0        0
S       67.69488637     -77.15966755      14.47711265        1        0
S       67.69488637     -77.15966755      11.35000000        2        0
Mo      63.96037219     -77.08672842      12.91355632        0        0
S       64.89619346     -75.50443105      14.47711265        1        0
S       64.89619346     -75.50443105      11.35000000        2        0
Mo      61.16167928     -75.43149192      12.91355632        0        0
S       62.09750055     -73.84919455      14.47711265        1        0
S       62.09750055     -73.84919455      11.35000000        2        0
Mo      58.36298637     -73.77625542      12.91355632        0        0
S       59.29880763     -72.19395805      14.47711265        1        0
S       59.29880763     -72.19395805      11.35000000        2        0
Mo      55.56429345     -72.12101892      12.91355632        0        0
S       56.50011472     -70.53872155      14.47711265        1        0
S       56.50011472     -70.53872155      11.35000000        2        0
Mo      52.76560054     -70.46578242      12.91355632        0        0
S       53.70142181     -68.88348505      14.47711265        1        0
S       53.70142181     -68.88348505      11.35000000        2        0
Mo      49.96690763     -68.81054592      12.91355632        0        0
S       50.90272889     -67.22824855      14.47711265        1        0
S       50.90272889     -67.22824855      11.35000000        2        0
Mo      47.16821471     -67.15530942      12.91355632        0        0
S       48.10403598     -65.57301205      14.47711265        1        0
S       48.10403598     -65.57301205      11.35000000        2        0
Mo      44.36952180     -65.50007292      12.91355632        0        0
S       45.30534307     -63.91777555      14.47711265        1        0
S       45.30534307     -63.91777555      11.35000000        2        0
Mo      41.57082889     -63.84483642      12.91355632        0        0
S       42.50665015     -62.26253905      14.47711265        1        0
S       42.50665015     -62.26253905      11.35000000        2        0
Mo      38.77213597     -62.18959992      12.91355632        0        0
S       39.70795724     -60.60730255      14.47711265        1        0
S       39.70795724     -60.60730255      11.35000000        2        0
Mo      35.97344306     -60.53436342      12.91355632        0        0
S       36.90926432     -58.95206605      14.47711265        1        0
S       36.90926432     -58.95206605      11.35000000        2        0
Mo     188.05851162     -58.87912692      12.91355632        0        0
S       34.11057141     -57.29682955      14.47711265        1        0
S       34.11057141     -57.29682955      11.35000000        2        0
Mo     185.25981871     -57.22389042      12.91355632        0        0
S      186.19563998     -55.64159305      14.47711265        1        0
S      186.19563998     -55.64159305      11.35000000        2        0
Mo      90.10425965      -0.94584943      12.91355632        0        0
S      168.48196166    -133.49682413      14.47711265        1        0
S      168.48196166    -133.49682413      11.35000000        2        0
Mo     164.74744748    -133.42388500      12.91355632        0        0
S      165.68326875    -131.84158763      14.47711265        1        0
S      165.68326875    -131.84158763      11.35000000        2        0
Mo     161.94875457    -131.76864850      12.91355632        0        0
S      162.88457583    -130.18635113      14.47711265        1        0
S      162.88457583    -130.18635113      11.35000000        2        0
Mo     159.15006165    -130.11341200      12.91355632        0        0
S      160.08588292    -128.53111463      14.47711265        1        0
S      160.08588292    -128.53111463      11.35000000        2        0
Mo     156.35136874    -128.45817550      12.91355632        0        0
S      157.28719000    -126.87587813      14.47711265        1        0
S      157.28719000    -126.87587813      11.35000000        2        0
Mo     153.55267582    -126.80293900      12.91355632        0        0
S      154.48849709    -125.22064163      14.47711265        1        0
S      154.48849709    -125.22064163      11.35000000        2        0
Mo     150.75398291    -125.14770250      12.91355632        0        0
S      151.68980418    -123.56540513      14.47711265        1        0
S      151.68980418    -123.56540513      11.35000000        2        0
Mo     147.95529000    -123.49246600      12.91355632        0        0
S      148.89111126    -121.91016863      14.47711265        1        0
S      148.89111126    -121.91016863      11.35000000        2        0
Mo     145.15659708    -121.83722950      12.91355632        0        0
S      146.09241835    -120.25493213      14.47711265        1        0
S      146.09241835    -120.25493213      11.35000000        2        0
Mo     142.35790417    -120.18199300      12.91355632        0        0
S      143.29372544    -118.59969563      14.47711265        1        0
S      143.29372544    -118.59969563      11.35000000        2        0
Mo     139.55921126    -118.52675650      12.91355632        0        0
S      140.49503252    -116.94445913      14.47711265        1        0
S      140.49503252    -116.94445913      11.35000000        2        0
Mo     136.76051834    -116.87152000      12.91355632        0        0
S      137.69633961    -115.28922263      14.47711265        1        0
S      137.69633961    -115.28922263      11.35000000        2        0
Mo     133.96182543    -115.21628351      12.91355632        0        0
S      134.89764670    -113.63398613      14.47711265        1        0
S      134.89764670    -113.63398613      11.35000000        2        0
Mo     131.16313252    -113.56104701      12.91355632        0        0
S      132.09895378    -111.97874963      14.47711265        1        0
S      132.09895378    -111.97874963      11.35000000        2        0
Mo     128.36443960    -111.90581051      12.91355632        0        0
S      129.30026087    -110.32351313      14.47711265        1        0
S      129.30026087    -110.32351313      11.35000000        2        0
Mo     125.56574669    -110.25057401      12.91355632        0        0
S      126.50156796    -108.66827663      14.47711265        1        0
S      126.50156796    -108.66827663      11.35000000        2        0
Mo     122.76705378    -108.59533751      12.91355632        0        0
S      123.70287504    -107.01304013      14.47711265        1        0
S      123.70287504    -107.01304013      11.35000000        2        0
Mo     119.96836086    -106.94010101      12.91355632        0        0
S      120.90418213    -105.35780363      14.47711265        1        0
S      120.90418213    -105.35780363      11.35000000        2        0
Mo     117.16966795    -105.28486451      12.91355632        0        0
S      118.10548922    -103.70256713      14.47711265        1        0
S      118.10548922    -103.70256713      11.35000000        2        0
Mo     114.37097504    -103.62962801      12.91355632        0        0
S      115.30679630    -102.04733063      14.47711265        1        0
S      115.30679630    -102.04733063      11.35000000        2        0
Mo     111.57228212    -101.97439151      12.91355632        0        0
S      112.50810339    -100.39209413      14.47711265        1        0
S      112.50810339    -100.39209413      11.35000000        2        0
Mo     108.77358921    -100.31915501      12.91355632        0        0
S      109.70941048     -98.73685763      14.47711265        1        0
S      109.70941048     -98.73685763      11.35000000        2        0
Mo     105.97489630     -98.66391851      12.91355632        0        0
S      106.91071756     -97.08162113      14.47711265        1        0
S      106.91071756     -97.08162113      11.35000000        2        0
Mo     103.17620338     -97.00868201      12.91355632        0        0
S      104.11202465     -95.42638464      14.47711265        1        0
S      104.11202465     -95.42638464      11.35000000        2        0
Mo     100.37751047     -95.35344551      12.91355632        0        0
S      101.31333174     -93.77114814      14.47711265        1        0
S      101.31333174     -93.77114814      11.35000000        2        0
Mo      97.57881756     -93.69820901      12.91355632        0        0
S       98.51463882     -92.11591164      14.47711265        1        0
S       98.51463882     -92.11591164      11.35000000        2        0
Mo      94.78012464     -92.04297251      12.91355632        0        0
S       95.71594591     -90.46067514      14.47711265        1        0
S       95.71594591     -90.46067514      11.35000000        2        0
Mo      91.98143173     -90.38773601      12.91355632        0        0
S       92.91725300     -88.80543864      14.47711265        1        0
S       92.91725300     -88.80543864      11.35000000        2        0
Mo      89.18273882     -88.73249951      12.91355632        0        0
S       90.11856008     -87.15020214      14.47711265        1        0
S       90.11856008     -87.15020214      11.35000000        2        0
Mo      86.38404590     -87.07726301      12.91355632        0        0
S       87.31986717     -85.49496564      14.47711265        1        0
S       87.31986717     -85.49496564      11.35000000        2        0
Mo      83.58535299     -85.42202651      12.91355632        0        0
S       84.52117425     -83.83972914      14.47711265        1        0
S       84.52117425     -83.83972914      11.35000000        2        0
Mo      80.78666008     -83.76679001      12.91355632        0        0
S       81.72248134     -82.18449264      14.47711265        1        0
S       81.72248134     -82.18449264      11.35000000        2        0
Mo      77.98796716     -82.11155351      12.91355632        0        0
S       78.92378843     -80.52925614      14.47711265        1        0
S       78.92378843     -80.52925614      11.35000000        2        0
Mo      75.18927425     -80.45631701      12.91355632        0        0
S       76.12509551     -78.87401964      14.47711265        1        0
S       76.12509551     -78.87401964      11.35000000        2        0
Mo      72.39058133     -78.80108051      12.91355632        0        0
S       73.32640260     -77.21878314      14.47711265        1        0
S       73.32640260     -77.21878314      11.35000000        2        0
Mo      69.59188842     -77.14584401      12.91355632        0        0
S       70.52770969     -75.56354664      14.47711265        1        0
S       70.52770969     -75.56354664      11.35000000        2        0
Mo      66.79319551     -75.49060751      12.91355632        0        0
S       67.72901677     -73.90831014      14.47711265        1        0
S       67.72901677     -73.90831014      11.35000000        2        0
Mo      63.99450259     -73.83537101      12.91355632        0        0
S       64.93032386     -72.25307364      14.47711265        1        0
S       64.93032386     -72.25307364      11.35000000        2        0
Mo      61.19580968     -72.18013451      12.91355632        0        0
S       62.13163095     -70.59783714      14.47711265        1        0
S       62.13163095     -70.59783714      11.35000000        2        0
Mo      58.39711677     -70.52489801      12.91355632        0        0
S       59.33293803     -68.94260064      14.47711265        1        0
S       59.33293803     -68.94260064      11.35000000        2        0
Mo      55.59842385     -68.86966151      12.91355632        0        0
S       56.53424512     -67.28736414      14.47711265        1        0
S       56.53424512     -67.28736414      11.35000000        2        0
Mo      52.79973094     -67.21442501      12.91355632        0        0
S       53.73555221     -65.63212764      14.47711265        1        0
S       53.73555221     -65.63212764      11.35000000        2        0
Mo      50.00103803     -65.55918851      12.91355632        0        0
S       50.93685929     -63.97689114      14.47711265        1        0
S       50.93685929     -63.97689114      11.35000000        2        0
Mo      47.20234511     -63.90395201      12.91355632        0        0
S       48.13816638     -62.32165464      14.47711265        1        0
S       48.13816638     -62.32165464      11.35000000        2        0
Mo      44.40365220     -62.24871551      12.91355632        0        0
S       45.33947347     -60.66641814      14.47711265        1        0
S       45.33947347     -60.66641814      11.35000000        2        0
Mo      41.60495929     -60.59347901      12.91355632        0        0
S       42.54078055     -59.01118164      14.47711265        1        0
S       42.54078055     -59.01118164      11.35000000        2        0
Mo      38.80626637     -58.93824251      12.91355632        0        0
S       39.74208764     -57.35594514      14.47711265        1        0
S       39.74208764     -57.35594514      11.35000000        2        0
Mo      36.00757346     -57.28300601      12.91355632        0        0
S       36.94339473     -55.70070864      14.47711265        1        0
S       36.94339473     -55.70070864      11.35000000        2        0
Mo      33.20888055     -55.62776951      12.91355632        0        0
S       34.14470181     -54.04547214      14.47711265        1        0
S       34.14470181     -54.04547214      11.35000000        2        0
Mo     185.29394911     -53.97253301      12.91355632        0        0
S       31.34600890     -52.39023564      14.47711265        1        0
S       31.34600890     -52.39023564      11.35000000        2        0
Mo     182.49525620     -52.31729651      12.91355632        0        0
S      183.43107746     -50.73499914      14.47711265        1        0
S      183.43107746     -50.73499914      11.35000000        2        0
Mo      95.73577588      -1.00496502      12.91355632        0        0
S      174.11347789    -133.55593972      14.47711265        1        0
S      174.11347789    -133.55593972      11.35000000        2        0
Mo     170.37896371    -133.48300059      12.91355632        0        0
S      171.31478497    -131.90070322      14.47711265        1        0
S      171.31478497    -131.90070322      11.35000000        2        0
Mo     167.58027079    -131.82776409      12.91355632        0        0
S      168.51609206    -130.24546672      14.47711265        1        0
S      168.51609206    -130.24546672      11.35000000        2        0
Mo     164.78157788    -130.17252759      12.91355632        0        0
S      165.71739915    -128.59023022      14.47711265        1        0
S      165.71739915    -128.59023022      11.35000000        2        0
Mo     161.98288497    -128.51729109      12.91355632        0        0
S      162.91870623    -126.93499372      14.47711265        1        0
S      162.91870623    -126.93499372      11.35000000        2        0
Mo     159.18419205    -126.86205459      12.91355632        0        0
S      160.12001332    -125.27975722      14.47711265        1        0
S      160.12001332    -125.27975722      11.35000000        2        0
Mo     156.38549914    -125.20681809      12.91355632        0        0
S      157.32132041    -123.62452072      14.47711265        1        0
S      157.32132041    -123.62452072      11.35000000        2        0
Mo     153.58680623    -123.55158159      12.91355632        0        0
S      154.52262749    -121.96928422      14.47711265        1        0
S      154.52262749    -121.96928422      11.35000000        2        0
Mo     150.78811331    -121.89634509      12.91355632        0        0
S      151.72393458    -120.31404772      14.47711265        1        0
S      151.72393458    -120.31404772      11.35000000        2        0
Mo     147.98942040    -120.24110859      12.91355632        0        0
S      148.92524167    -118.65881122      14.47711265        1        0
S      148.92524167    -118.65881122      11.35000000        2        0
Mo     145.19072749    -118.58587209      12.91355632        0        0
S      146.12654875    -117.00357472      14.47711265        1        0
S      146.12654875    -117.00357472      11.35000000        2        0
Mo     142.39203457    -116.93063559      12.91355632        0        0
S      143.32785584    -115.34833822      14.47711265        1        0
S      143.32785584    -115.34833822      11.35000000        2        0
Mo     139.59334166    -115.27539909      12.91355632        0        0
S      140.52916293    -113.69310172      14.47711265        1        0
S      140.52916293    -113.69310172      11.35000000        2        0
Mo     136.79464875    -113.62016259      12.91355632        0        0
S      137.73047001    -112.03786522      14.47711265        1        0
S      137.73047001    -112.03786522      11.35000000        2        0
Mo     133.99595583    -111.96492609      12.91355632        0        0
S      134.93177710    -110.38262872      14.47711265        1        0
S      134.93177710    -110.38262872      11.35000000        2        0
Mo     131.19726292    -110.30968959      12.91355632        0        0
S      132.13308419    -108.72739222      14.47711265        1        0
S      132.13308419    -108.72739222      11.35000000        2        0
Mo     128.39857001    -108.65445310      12.91355632        0        0
S      129.33439127    -107.07215572      14.47711265        1        0
S      129.33439127    -107.07215572      11.35000000        2        0
Mo     125.59987709    -106.99921660      12.91355632        0        0
S      126.53569836    -105.41691922      14.47711265        1        0
S      126.53569836    -105.41691922      11.35000000        2        0
Mo     122.80118418    -105.34398010      12.91355632        0        0
S      123.73700544    -103.76168272      14.47711265        1        0
S      123.73700544    -103.76168272      11.35000000        2        0
Mo     120.00249126    -103.68874360      12.91355632        0        0
S      120.93831253    -102.10644622      14.47711265        1        0
S      120.93831253    -102.10644622      11.35000000        2        0
Mo     117.20379835    -102.03350710      12.91355632        0        0
S      118.13961962    -100.45120972      14.47711265        1        0
S      118.13961962    -100.45120972      11.35000000        2        0
Mo     114.40510544    -100.37827060      12.91355632        0        0
S      115.34092670     -98.79597322      14.47711265        1        0
S      115.34092670     -98.79597322      11.35000000        2        0
Mo     111.60641252     -98.72303410      12.91355632        0        0
S      112.54223379     -97.14073672      14.47711265        1        0
S      112.54223379     -97.14073672      11.35000000        2        0
Mo     108.80771961     -97.06779760      12.91355632        0        0
S      109.74354088     -95.48550022      14.47711265        1        0
S      109.74354088     -95.48550022      11.35000000        2        0
Mo     106.00902670     -95.41256110      12.91355632        0        0
S      106.94484796     -93.83026372      14.47711265        1        0
S      106.94484796     -93.83026372      11.35000000        2        0
Mo     103.21033378     -93.75732460      12.91355632        0        0
S      104.14615505     -92.17502722      14.47711265        1        0
S      104.14615505     -92.17502722      11.35000000        2        0
Mo     100.41164087     -92.10208810      12.91355632        0        0
S      101.34746214     -90.51979072      14.47711265        1        0
S      101.34746214     -90.51979072      11.35000000        2        0
Mo      97.61294796     -90.44685160      12.91355632        0        0
S       98.54876922     -88.86455423      14.47711265        1        0
S       98.54876922     -88.86455423      11.35000000        2        0
Mo      94.81425504     -88.79161510      12.91355632        0        0
S       95.75007631     -87.20931773      14.47711265        1        0
S       95.75007631     -87.20931773      11.35000000        2        0
Mo      92.01556213     -87.13637860      12.91355632        0        0
S       92.95138340     -85.55408123      14.47711265        1        0
S       92.95138340     -85.55408123      11.35000000        2        0
Mo      89.21686922     -85.48114210      12.91355632        0        0
S       90.15269048     -83.89884473      14.47711265        1        0
S       90.15269048     -83.89884473      11.35000000        2        0
Mo      86.41817630     -83.82590560      12.91355632        0        0
S       87.35399757     -82.24360823      14.47711265        1        0
S       87.35399757     -82.24360823      11.35000000        2        0
Mo      83.61948339     -82.17066910      12.91355632        0        0
S       84.55530466     -80.58837173      14.47711265        1        0
S       84.55530466     -80.58837173      11.35000000        2        0
Mo      80.82079048     -80.51543260      12.91355632        0        0
S       81.75661174     -78.93313523      14.47711265        1        0
S       81.75661174     -78.93313523      11.35000000        2        0
Mo      78.02209756     -78.86019610      12.91355632        0        0
S       78.95791883     -77.27789873      14.47711265        1        0
S       78.95791883     -77.27789873      11.35000000        2        0
Mo      75.22340465     -77.20495960      12.91355632        0        0
S       76.15922592     -75.62266223      14.47711265        1        0
S       76.15922592     -75.62266223      11.35000000        2        0
Mo      72.42471174     -75.54972310      12.91355632        0        0
S       73.36053300     -73.96742573      14.47711265        1        0
S       73.36053300     -73.96742573      11.35000000        2        0
Mo      69.62601882     -73.89448660      12.91355632        0        0
S       70.56184009     -72.31218923      14.47711265        1        0
S       70.56184009     -72.31218923      11.35000000        2        0
Mo      66.82732591     -72.23925010      12.91355632        0        0
S       67.76314718     -70.65695273      14.47711265        1        0
S       67.76314718     -70.65695273      11.35000000        2        0
Mo      64.02863300     -70.58401360      12.91355632        0        0
S       64.96445426     -69.00171623      14.47711265        1        0
S       64.96445426     -69.00171623      11.35000000        2        0
Mo      61.22994008     -68.92877710      12.91355632        0        0
S       62.16576135     -67.34647973      14.47711265        1        0
S       62.16576135     -67.34647973      11.35000000        2        0
Mo      58.43124717     -67.27354060      12.91355632        0        0
S       59.36706844     -65.69124323      14.47711265        1        0
S       59.36706844     -65.69124323      11.35000000        2        0
Mo      55.63255426     -65.61830410      12.91355632        0        0
S       56.56837552     -64.03600673      14.47711265        1        0
S       56.56837552     -64.03600673      11.35000000        2        0
Mo      52.83386134     -63.96306760      12.91355632        0        0
S       53.76968261     -62.38077023      14.47711265        1        0
S       53.76968261     -62.38077023      11.35000000        2        0
Mo      50.03516843     -62.30783110      12.91355632        0        0
S       50.97098969     -60.72553373      14.47711265        1        0
S       50.97098969     -60.72553373      11.35000000        2        0
Mo      47.23647551     -60.65259460      12.91355632        0        0
S       48.17229678     -59.07029723      14.47711265        1        0
S       48.17229678     -59.07029723      11.35000000        2        0
Mo      44.43778260     -58.99735810      12.91355632        0        0
S       45.37360387     -57.41506073      14.47711265        1        0
S       45.37360387     -57.41506073      11.35000000        2        0
Mo      41.63908969     -57.34212160      12.91355632        0        0
S       42.57491095     -55.75982423      14.47711265        1        0
S       42.57491095     -55.75982423      11.35000000        2        0
Mo      38.84039677     -55.68688510      12.91355632        0        0
S       39.77621804     -54.10458773      14.47711265        1        0
S       39.77621804     -54.10458773      11.35000000        2        0
Mo      36.04170386     -54.03164860      12.91355632        0        0
S       36.97752513     -52.44935123      14.47711265        1        0
S       36.97752513     -52.44935123      11.35000000        2        0
Mo      33.24301095     -52.37641210      12.91355632        0        0
S       34.17883221     -50.79411473      14.47711265        1        0
S       34.17883221     -50.79411473      11.35000000        2        0
Mo      30.44431803     -50.72117560      12.91355632        0        0
S       31.38013930     -49.13887823      14.47711265        1        0
S       31.38013930     -49.13887823      11.35000000        2        0
Mo     182.52938660     -49.06593910      12.91355632        0        0
S       28.58144639     -47.48364173      14.47711265        1        0
S       28.58144639     -47.48364173      11.35000000        2        0
Mo     179.73069369     -47.41070260      12.91355632        0        0
S      180.66651495     -45.82840523      14.47711265        1        0
S      180.66651495     -45.82840523      11.35000000        2        0
Mo     101.36729211      -1.06408061      12.91355632        0        0
S      179.74499412    -133.61505531      14.47711265        1        0
S      179.74499412    -133.61505531      11.35000000        2        0
Mo     176.01047994    -133.54211618      12.91355632        0        0
S      176.94630120    -131.95981881      14.47711265        1        0
S      176.94630120    -131.95981881      11.35000000        2        0
Mo     173.21178702    -131.88687968      12.91355632        0        0
S      174.14760829    -130.30458231      14.47711265        1        0
S      174.14760829    -130.30458231      11.35000000        2        0
Mo     170.41309411    -130.23164318      12.91355632        0        0
S      171.34891537    -128.64934581      14.47711265        1        0
S      171.34891537    -128.64934581      11.35000000        2        0
Mo     167.61440119    -128.57640668      12.91355632        0        0
S      168.55022246    -126.99410931      14.47711265        1        0
S      168.55022246    -126.99410931      11.35000000        2        0
Mo     164.81570828    -126.92117018      12.91355632        0        0
S      165.75152955    -125.33887281      14.47711265        1        0
S      165.75152955    -125.33887281      11.35000000        2        0
Mo     162.01701537    -125.26593368      12.91355632        0        0
S      162.95283663    -123.68363631      14.47711265        1        0
S      162.95283663    -123.68363631      11.35000000        2        0
Mo     159.21832245    -123.61069718      12.91355632        0        0
S      160.15414372    -122.02839981      14.47711265        1        0
S      160.15414372    -122.02839981      11.35000000        2        0
Mo     156.41962954    -121.95546068      12.91355632        0        0
S      157.35545081    -120.37316331      14.47711265        1        0
S      157.35545081    -120.37316331      11.35000000        2        0
Mo     153.62093663    -120.30022418      12.91355632        0        0
S      154.55675789    -118.71792681      14.47711265        1        0
S      154.55675789    -118.71792681      11.35000000        2        0
Mo     150.82224371    -118.64498768      12.91355632        0        0
S      151.75806498    -117.06269031      14.47711265        1        0
S      151.75806498    -117.06269031      11.35000000        2        0
Mo     148.02355080    -116.98975118      12.91355632        0        0
S      148.95937207    -115.40745381      14.47711265        1        0
S      148.95937207    -115.40745381      11.35000000        2        0
Mo     145.22485789    -115.33451468      12.91355632        0        0
S      146.16067915    -113.75221731      14.47711265        1        0
S      146.16067915    -113.75221731      11.35000000        2        0
Mo     142.42616497    -113.67927818      12.91355632        0        0
S      143.36198624    -112.09698081      14.47711265        1        0
S      143.36198624    -112.09698081      11.35000000        2        0
Mo     139.62747206    -112.02404168      12.91355632        0        0
S      140.56329333    -110.44174431      14.47711265        1        0
S      140.56329333    -110.44174431      11.35000000        2        0
Mo     136.82877915    -110.36880518      12.91355632        0        0
S      137.76460041    -108.78650781      14.47711265        1        0
S      137.76460041    -108.78650781      11.35000000        2        0
Mo     134.03008623    -108.71356868      12.91355632        0        0
S      134.96590750    -107.13127131      14.47711265        1        0
S      134.96590750    -107.13127131      11.35000000        2        0
Mo     131.23139332    -107.05833218      12.91355632        0        0
S      132.16721459    -105.47603481      14.47711265        1        0
S      132.16721459    -105.47603481      11.35000000        2        0
Mo     128.43270041    -105.40309568      12.91355632        0        0
S      129.36852167    -103.82079831      14.47711265        1        0
S      129.36852167    -103.82079831      11.35000000        2        0
Mo     125.63400749    -103.74785918      12.91355632        0        0
S      126.56982876    -102.16556181      14.47711265        1        0
S      126.56982876    -102.16556181      11.35000000        2        0
Mo     122.83531458    -102.09262269      12.91355632        0        0
S      123.77113585    -100.51032531      14.47711265        1        0
S      123.77113585    -100.51032531      11.35000000        2        0
Mo     120.03662167    -100.43738619      12.91355632        0        0
S      120.97244293     -98.85508881      14.47711265        1        0
S      120.97244293     -98.85508881      11.35000000        2        0
Mo     117.23792875     -98.78214969      12.91355632        0        0
S      118.17375002     -97.19985231      14.47711265        1        0
S      118.17375002     -97.19985231      11.35000000        2        0
Mo     114.43923584     -97.12691319      12.91355632        0        0
S      115.37505711     -95.54461581      14.47711265        1        0
S      115.37505711     -95.54461581      11.35000000        2        0
Mo     111.64054293     -95.47167669      12.91355632        0        0
S      112.57636419     -93.88937931      14.47711265        1        0
S      112.57636419     -93.88937931      11.35000000        2        0
Mo     108.84185001     -93.81644019      12.91355632        0        0
S      109.77767128     -92.23414281      14.47711265        1        0
S      109.77767128     -92.23414281      11.35000000        2        0
Mo     106.04315710     -92.16120369      12.91355632        0        0
S      106.97897837     -90.57890631      14.47711265        1        0
S      106.97897837     -90.57890631      11.35000000        2        0
Mo     103.24446419     -90.50596719      12.91355632        0        0
S      104.18028545     -88.92366981      14.47711265        1        0
S      104.18028545     -88.92366981      11.35000000        2        0
Mo     100.44577127     -88.85073069      12.91355632        0        0
S      101.38159254     -87.26843331      14.47711265        1        0
S      101.38159254     -87.26843331      11.35000000        2        0
Mo      97.64707836     -87.19549419      12.91355632        0        0
S       98.58289962     -85.61319681      14.47711265        1        0
S       98.58289962     -85.61319681      11.35000000        2        0
Mo      94.84838545     -85.54025769      12.91355632        0        0
S       95.78420671     -83.95796031      14.47711265        1        0
S       95.78420671     -83.95796031      11.35000000        2        0
Mo      92.04969253     -83.88502119      12.91355632        0        0
S       92.98551380     -82.30272382      14.47711265        1        0
S       92.98551380     -82.30272382      11.35000000        2        0
Mo      89.25099962     -82.22978469      12.91355632        0        0
S       90.18682088     -80.64748732      14.47711265        1        0
S       90.18682088     -80.64748732      11.35000000        2        0
Mo      86.45230670     -80.57454819      12.91355632        0        0
S       87.38812797     -78.99225082      14.47711265        1        0
S       87.38812797     -78.99225082      11.35000000        2        0
Mo      83.65361379     -78.91931169      12.91355632        0        0
S       84.58943506     -77.33701432      14.47711265        1        0
S       84.58943506     -77.33701432      11.35000000        2        0
Mo      80.85492088     -77.26407519      12.91355632        0        0
S       81.79074214     -75.68177782      14.47711265        1        0
S       81.79074214     -75.68177782      11.35000000        2        0
Mo      78.05622796     -75.60883869      12.91355632        0        0
S       78.99204923     -74.02654132      14.47711265        1        0
S       78.99204923     -74.02654132      11.35000000        2        0
Mo      75.25753505     -73.95360219      12.91355632        0        0
S       76.19335632     -72.37130482      14.47711265        1        0
S       76.19335632     -72.37130482      11.35000000        2        0
Mo      72.45884214     -72.29836569      12.91355632        0        0
S       73.39466340     -70.71606832      14.47711265        1        0
S       73.39466340     -70.71606832      11.35000000        2        0
Mo      69.66014922     -70.64312919      12.91355632        0        0
S       70.59597049     -69.06083182      14.47711265        1        0
S       70.59597049     -69.06083182      11.35000000        2        0
Mo      66.86145631     -68.98789269      12.91355632        0        0
S       67.79727758     -67.40559532      14.47711265        1        0
S       67.79727758     -67.40559532      11.35000000        2        0
Mo      64.06276340     -67.33265619      12.91355632        0        0
S       64.99858466     -65.75035882      14.47711265        1        0
S       64.99858466     -65.75035882      11.35000000        2        0
Mo      61.26407048     -65.67741969      12.91355632        0        0
S       62.19989175     -64.09512232      14.47711265        1        0
S       62.19989175     -64.09512232      11.35000000        2        0
Mo      58.46537757     -64.02218319      12.91355632        0        0
S       59.40119884     -62.43988582      14.47711265        1        0
S       59.40119884     -62.43988582      11.35000000        2        0
Mo      55.66668466     -62.36694669      12.91355632        0        0
S       56.60250592     -60.78464932      14.47711265        1        0
S       56.60250592     -60.78464932      11.35000000        2        0
Mo      52.86799174     -60.71171019      12.91355632        0        0
S       53.80381301     -59.12941282      14.47711265        1        0
S       53.80381301     -59.12941282      11.35000000        2        0
Mo      50.06929883     -59.05647369      12.91355632        0        0
S       51.00512010     -57.47417632      14.47711265        1        0
S       51.00512010     -57.47417632      11.35000000        2        0
Mo      47.27060592     -57.40123719      12.91355632        0        0
S       48.20642718     -55.81893982      14.47711265        1        0
S       48.20642718     -55.81893982      11.35000000        2        0
Mo      44.47191300     -55.74600069      12.91355632        0        0
S       45.40773427     -54.16370332      14.47711265        1        0
S       45.40773427     -54.16370332      11.35000000        2        0
Mo      41.67322009     -54.09076419      12.91355632        0        0
S       42.60904136     -52.50846682      14.47711265        1        0
S       42.60904136     -52.50846682      11.35000000        2        0
Mo      38.87452718     -52.43552769      12.91355632        0        0
S       39.81034844     -50.85323032      14.47711265        1        0
S       39.81034844     -50.85323032      11.35000000        2        0
Mo      36.07583426     -50.78029119      12.91355632        0        0
S       37.01165553     -49.19799382      14.47711265        1        0
S       37.01165553     -49.19799382      11.35000000        2        0
Mo      33.27714135     -49.12505469      12.91355632        0        0
S       34.21296262     -47.54275732      14.47711265        1        0
S       34.21296262     -47.54275732      11.35000000        2        0
Mo      30.47844844     -47.46981819      12.91355632        0        0
S       31.41426970     -45.88752082      14.47711265        1        0
S       31.41426970     -45.88752082      11.35000000        2        0
Mo      27.67975552     -45.81458169      12.91355632        0        0
S       28.61557679     -44.23228432      14.47711265        1        0
S       28.61557679     -44.23228432      11.35000000        2        0
Mo     179.76482409     -44.15934519      12.91355632        0        0
S       25.81688388     -42.57704782      14.47711265        1        0
S       25.81688388     -42.57704782      11.35000000        2        0
Mo     176.96613117     -42.50410869      12.91355632        0        0
S      177.90195244     -40.92181132      14.47711265        1        0
S      177.90195244     -40.92181132      11.35000000        2        0
Mo     106.99880834      -1.12319620      12.91355632        0        0
S      185.37651034    -133.67417090      14.47711265        1        0
S      185.37651034    -133.67417090      11.35000000        2        0
Mo     181.64199616    -133.60123177      12.91355632        0        0
S      182.57781743    -132.01893440      14.47711265        1        0
S      182.57781743    -132.01893440      11.35000000        2        0
Mo     178.84330325    -131.94599527      12.91355632        0        0
S      179.77912452    -130.36369790      14.47711265        1        0
S      179.77912452    -130.36369790      11.35000000        2        0
Mo     176.04461034    -130.29075877      12.91355632        0        0
S      176.98043160    -128.70846140      14.47711265        1        0
S      176.98043160    -128.70846140      11.35000000        2        0
Mo     173.24591742    -128.63552227      12.91355632        0        0
S      174.18173869    -127.05322490      14.47711265        1        0
S      174.18173869    -127.05322490      11.35000000        2        0
Mo     170.44722451    -126.98028577      12.91355632        0        0
S      171.38304578    -125.39798840      14.47711265        1        0
S      171.38304578    -125.39798840      11.35000000        2        0
Mo     167.64853160    -125.32504927      12.91355632        0        0
S      168.58435286    -123.74275190      14.47711265        1        0
S      168.58435286    -123.74275190      11.35000000        2        0
Mo     164.84983868    -123.66981277      12.91355632        0        0
S      165.78565995    -122.08751540      14.47711265        1        0
S      165.78565995    -122.08751540      11.35000000        2        0
Mo     162.05114577    -122.01457627      12.91355632        0        0
S      162.98696704    -120.43227890      14.47711265        1        0
S      162.98696704    -120.43227890      11.35000000        2        0
Mo     159.25245286    -120.35933977      12.91355632        0        0
S      160.18827412    -118.77704240      14.47711265        1        0
S      160.18827412    -118.77704240      11.35000000        2        0
Mo     156.45375994    -118.70410327      12.91355632        0        0
S      157.38958121    -117.12180590      14.47711265        1        0
S      157.38958121    -117.12180590      11.35000000        2        0
Mo     153.65506703    -117.04886677      12.91355632        0        0
S      154.59088830    -115.46656940      14.47711265        1        0
S      154.59088830    -115.46656940      11.35000000        2        0
Mo     150.85637412    -115.39363027      12.91355632        0        0
S      151.79219538    -113.81133290      14.47711265        1        0
S      151.79219538    -113.81133290      11.35000000        2        0
Mo     148.05768120    -113.73839377      12.91355632        0        0
S      148.99350247    -112.15609640      14.47711265        1        0
S      148.99350247    -112.15609640      11.35000000        2        0
Mo     145.25898829    -112.08315727      12.91355632        0        0
S      146.19480956    -110.50085990      14.47711265        1        0
S      146.19480956    -110.50085990      11.35000000        2        0
Mo     142.46029538    -110.42792077      12.91355632        0        0
S      143.39611664    -108.84562340      14.47711265        1        0
S      143.39611664    -108.84562340      11.35000000        2        0
Mo     139.66160246    -108.77268427      12.91355632        0        0
S      140.59742373    -107.19038690      14.47711265        1        0
S      140.59742373    -107.19038690      11.35000000        2        0
Mo     136.86290955    -107.11744777      12.91355632        0        0
S      137.79873081    -105.53515040      14.47711265        1        0
S      137.79873081    -105.53515040      11.35000000        2        0
Mo     134.06421663    -105.46221127      12.91355632        0        0
S      135.00003790    -103.87991390      14.47711265        1        0
S      135.00003790    -103.87991390      11.35000000        2        0
Mo     131.26552372    -103.80697477      12.91355632        0        0
S      132.20134499    -102.22467740      14.47711265        1        0
S      132.20134499    -102.22467740      11.35000000        2        0
Mo     128.46683081    -102.15173827      12.91355632        0        0
S      129.40265207    -100.56944090      14.47711265        1        0
S      129.40265207    -100.56944090      11.35000000        2        0
Mo     125.66813789    -100.49650177      12.91355632        0        0
S      126.60395916     -98.91420440      14.47711265        1        0
S      126.60395916     -98.91420440      11.35000000        2        0
Mo     122.86944498     -98.84126527      12.91355632        0        0
S      123.80526625     -97.25896790      14.47711265        1        0
S      123.80526625     -97.25896790      11.35000000        2        0
Mo     120.07075207     -97.18602877      12.91355632        0        0
S      121.00657333     -95.60373140      14.47711265        1        0
S      121.00657333     -95.60373140      11.35000000        2        0
Mo     117.27205915     -95.53079228      12.91355632        0        0
S      118.20788042     -93.94849490      14.47711265        1        0
S      118.20788042     -93.94849490      11.35000000        2        0
Mo     114.47336624     -93.87555578      12.91355632        0        0
S      115.40918751     -92.29325840      14.47711265        1        0
S      115.40918751     -92.29325840      11.35000000        2        0
Mo     111.67467333     -92.22031928      12.91355632        0        0
S      112.61049459     -90.63802190      14.47711265        1        0
S      112.61049459     -90.63802190      11.35000000        2        0
Mo     108.87598041     -90.56508278      12.91355632        0        0
S      109.81180168     -88.98278540      14.47711265        1        0
S      109.81180168     -88.98278540      11.35000000        2        0
Mo     106.07728750     -88.90984628      12.91355632        0        0
S      107.01310877     -87.32754890      14.47711265        1        0
S      107.01310877     -87.32754890      11.35000000        2        0
Mo     103.27859459     -87.25460978      12.91355632        0        0
S      104.21441585     -85.67231240      14.47711265        1        0
S      104.21441585     -85.67231240      11.35000000        2        0
Mo     100.47990167     -85.59937328      12.91355632        0        0
S      101.41572294     -84.01707590      14.47711265        1        0
S      101.41572294     -84.01707590      11.35000000        2        0
Mo      97.68120876     -83.94413678      12.91355632        0        0
S       98.61703003     -82.36183940      14.47711265        1        0
S       98.61703003     -82.36183940      11.35000000        2        0
Mo      94.88251585     -82.28890028      12.91355632        0        0
S       95.81833711     -80.70660290      14.47711265        1        0
S       95.81833711     -80.70660290      11.35000000        2        0
Mo      92.08382293     -80.63366378      12.91355632        0        0
S       93.01964420     -79.05136640      14.47711265        1        0
S       93.01964420     -79.05136640      11.35000000        2        0
Mo      89.28513002     -78.97842728      12.91355632        0        0
S       90.22095129     -77.39612990      14.47711265        1        0
S       90.22095129     -77.39612990      11.35000000        2        0
Mo      86.48643711     -77.32319078      12.91355632        0        0
S       87.42225837     -75.74089341      14.47711265        1        0
S       87.42225837     -75.74089341      11.35000000        2        0
Mo      83.68774419     -75.66795428      12.91355632        0        0
S       84.62356546     -74.08565691      14.47711265        1        0
S       84.62356546     -74.08565691      11.35000000        2        0
Mo      80.88905128     -74.01271778      12.91355632        0        0
S       81.82487255     -72.43042041      14.47711265        1        0
S       81.82487255     -72.43042041      11.35000000        2        0
Mo      78.09035837     -72.35748128      12.91355632        0        0
S       79.02617963     -70.77518391      14.47711265        1        0
S       79.02617963     -70.77518391      11.35000000        2        0
Mo      75.29166545     -70.70224478      12.91355632        0        0
S       76.22748672     -69.11994741      14.47711265        1        0
S       76.22748672     -69.11994741      11.35000000        2        0
Mo      72.49297254     -69.04700828      12.91355632        0        0
S       73.42879381     -67.46471091      14.47711265        1        0
S       73.42879381     -67.46471091      11.35000000        2        0
Mo      69.69427963     -67.39177178      12.91355632        0        0
S       70.63010089     -65.80947441      14.47711265        1        0
S       70.63010089     -65.80947441      11.35000000        2        0
Mo      66.89558671     -65.73653528      12.91355632        0        0
S       67.83140798     -64.15423791      14.47711265        1        0
S       67.83140798     -64.15423791      11.35000000        2        0
Mo      64.09689380     -64.08129878      12.91355632        0        0
S       65.03271506     -62.49900141      14.47711265        1        0
S       65.03271506     -62.49900141      11.35000000        2        0
Mo      61.29820088     -62.42606228      12.91355632        0        0
S       62.23402215     -60.84376491      14.47711265        1        0
S       62.23402215     -60.84376491      11.35000000        2        0
Mo      58.49950797     -60.77082578      12.91355632        0        0
S       59.43532924     -59.18852841      14.47711265        1        0
S       59.43532924     -59.18852841      11.35000000        2        0
Mo      55.70081506     -59.11558928      12.91355632        0        0
S       56.63663632     -57.53329191      14.47711265        1        0
S       56.63663632     -57.53329191      11.35000000        2        0
Mo      52.90212214     -57.46035278      12.91355632        0        0
S       53.83794341     -55.87805541      14.47711265        1        0
S       53.83794341     -55.87805541      11.35000000        2        0
Mo      50.10342923     -55.80511628      12.91355632        0        0
S       51.03925050     -54.22281891      14.47711265        1        0
S       51.03925050     -54.22281891      11.35000000        2        0
Mo      47.30473632     -54.14987978      12.91355632        0        0
S       48.24055758     -52.56758241      14.47711265        1        0
S       48.24055758     -52.56758241      11.35000000        2        0
Mo      44.50604340     -52.49464328      12.91355632        0        0
S       45.44186467     -50.91234591      14.47711265        1        0
S       45.44186467     -50.91234591      11.35000000        2        0
Mo      41.70735049     -50.83940678      12.91355632        0        0
S       42.64317176     -49.25710941      14.47711265        1        0
S       42.64317176     -49.25710941      11.35000000        2        0
Mo      38.90865758     -49.18417028      12.91355632        0        0
S       39.84447884     -47.60187291      14.47711265        1        0
S       39.84447884     -47.60187291      11.35000000        2        0
Mo      36.10996466     -47.52893378      12.91355632        0        0
S       37.04578593     -45.94663641      14.47711265        1        0
S       37.04578593     -45.94663641      11.35000000        2        0
Mo      33.31127175     -45.87369728      12.91355632        0        0
S       34.24709302     -44.29139991      14.47711265        1        0
S       34.24709302     -44.29139991      11.35000000        2        0
Mo      30.51257884     -44.21846078      12.91355632        0        0
S       31.44840010     -42.63616341      14.47711265        1        0
S       31.44840010     -42.63616341      11.35000000        2        0
Mo      27.71388592     -42.56322428      12.91355632        0        0
S       28.64970719     -40.98092691      14.47711265        1        0
S       28.64970719     -40.98092691      11.35000000        2        0
Mo      24.91519301     -40.90798778      12.91355632        0        0
S       25.85101428     -39.32569041      14.47711265        1        0
S       25.85101428     -39.32569041      11.35000000        2        0
Mo     177.00026158     -39.25275128      12.91355632        0        0
S       23.05232136     -37.67045391      14.47711265        1        0
S       23.05232136     -37.67045391      11.35000000        2        0
Mo     174.20156866     -37.59751478      12.91355632        0        0
S      175.13738993     -36.01521741      14.47711265        1        0
S      175.13738993     -36.01521741      11.35000000        2        0
Mo     112.63032457      -1.18231179      12.91355632        0        0
S      191.00802657    -133.73328649      14.47711265        1        0
S      191.00802657    -133.73328649      11.35000000        2        0
Mo     187.27351239    -133.66034736      12.91355632        0        0
S      188.20933366    -132.07804999      14.47711265        1        0
S      188.20933366    -132.07804999      11.35000000        2        0
Mo     184.47481948    -132.00511086      12.91355632        0        0
S      185.41064074    -130.42281349      14.47711265        1        0
S      185.41064074    -130.42281349      11.35000000        2        0
Mo     181.67612656    -130.34987436      12.91355632        0        0
S      182.61194783    -128.76757699      14.47711265        1        0
S      182.61194783    -128.76757699      11.35000000        2        0
Mo     178.87743365    -128.69463786      12.91355632        0        0
S      179.81325492    -127.11234049      14.47711265        1        0
S      179.81325492    -127.11234049      11.35000000        2        0
Mo     176.07874074    -127.03940136      12.91355632        0        0
S      177.01456200    -125.45710399      14.47711265        1        0
S      177.01456200    -125.45710399      11.35000000        2        0
Mo     173.28004782    -125.38416486      12.91355632        0        0
S      174.21586909    -123.80186749      14.47711265        1        0
S      174.21586909    -123.80186749      11.35000000        2        0
Mo     170.48135491    -123.72892836      12.91355632        0        0
S      171.41717618    -122.14663099      14.47711265        1        0
S      171.41717618    -122.14663099      11.35000000        2        0
Mo     167.68266200    -122.07369186      12.91355632        0        0
S      168.61848326    -120.49139449      14.47711265        1        0
S      168.61848326    -120.49139449      11.35000000        2        0
Mo     164.88396908    -120.41845536      12.91355632        0        0
S      165.81979035    -118.83615799      14.47711265        1        0
S      165.81979035    -118.83615799      11.35000000        2        0
Mo     162.08527617    -118.76321886      12.91355632        0        0
S      163.02109744    -117.18092149      14.47711265        1        0
S      163.02109744    -117.18092149      11.35000000        2        0
Mo     159.28658326    -117.10798236      12.91355632        0        0
S      160.22240452    -115.52568499      14.47711265        1        0
S      160.22240452    -115.52568499      11.35000000        2        0
Mo     156.48789034    -115.45274586      12.91355632        0        0
S      157.42371161    -113.87044849      14.47711265        1        0
S      157.42371161    -113.87044849      11.35000000        2        0
Mo     153.68919743    -113.79750936      12.91355632        0        0
S      154.62501870    -112.21521199      14.47711265        1        0
S      154.62501870    -112.21521199      11.35000000        2        0
Mo     150.89050452    -112.14227286      12.91355632        0        0
S      151.82632578    -110.55997549      14.47711265        1        0
S      151.82632578    -110.55997549      11.35000000        2        0
Mo     148.09181160    -110.48703636      12.91355632        0        0
S      149.02763287    -108.90473899      14.47711265        1        0
S      149.02763287    -108.90473899      11.35000000        2        0
Mo     145.29311869    -108.83179986      12.91355632        0        0
S      146.22893996    -107.24950249      14.47711265        1        0
S      146.22893996    -107.24950249      11.35000000        2        0
Mo     142.49442578    -107.17656336      12.91355632        0        0
S      143.43024704    -105.59426599      14.47711265        1        0
S      143.43024704    -105.59426599      11.35000000        2        0
Mo     139.69573286    -105.52132686      12.91355632        0        0
S      140.63155413    -103.93902949      14.47711265        1        0
S      140.63155413    -103.93902949      11.35000000        2        0
Mo     136.89703995    -103.86609036      12.91355632        0        0
S      137.83286122    -102.28379299      14.47711265        1        0
S      137.83286122    -102.28379299      11.35000000        2        0
Mo     134.09834704    -102.21085386      12.91355632        0        0
S      135.03416830    -100.62855649      14.47711265        1        0
S      135.03416830    -100.62855649      11.35000000        2        0
Mo     131.29965412    -100.55561736      12.91355632        0        0
S      132.23547539     -98.97331999      14.47711265        1        0
S      132.23547539     -98.97331999      11.35000000        2        0
Mo     128.50096121     -98.90038086      12.91355632        0        0
S      129.43678248     -97.31808349      14.47711265        1        0
S      129.43678248     -97.31808349      11.35000000        2        0
Mo     125.70226830     -97.24514436      12.91355632        0        0
S      126.63808956     -95.66284699      14.47711265        1        0
S      126.63808956     -95.66284699      11.35000000        2        0
Mo     122.90357538     -95.58990786      12.91355632        0        0
S      123.83939665     -94.00761049      14.47711265        1        0
S      123.83939665     -94.00761049      11.35000000        2        0
Mo     120.10488247     -93.93467136      12.91355632        0        0
S      121.04070374     -92.35237399      14.47711265        1        0
S      121.04070374     -92.35237399      11.35000000        2        0
Mo     117.30618956     -92.27943486      12.91355632        0        0
S      118.24201082     -90.69713749      14.47711265        1        0
S      118.24201082     -90.69713749      11.35000000        2        0
Mo     114.50749664     -90.62419836      12.91355632        0        0
S      115.44331791     -89.04190099      14.47711265        1        0
S      115.44331791     -89.04190099      11.35000000        2        0
Mo     111.70880373     -88.96896187      12.91355632        0        0
S      112.64462500     -87.38666449      14.47711265        1        0
S      112.64462500     -87.38666449      11.35000000        2        0
Mo     108.91011082     -87.31372537      12.91355632        0        0
S      109.84593208     -85.73142799      14.47711265        1        0
S      109.84593208     -85.73142799      11.35000000        2        0
Mo     106.11141790     -85.65848887      12.91355632        0        0
S      107.04723917     -84.07619149      14.47711265        1        0
S      107.04723917     -84.07619149      11.35000000        2        0
Mo     103.31272499     -84.00325237      12.91355632        0        0
S      104.24854625     -82.42095499      14.47711265        1        0
S      104.24854625     -82.42095499      11.35000000        2        0
Mo     100.51403207     -82.34801587      12.91355632        0        0
S      101.44985334     -80.76571849      14.47711265        1        0
S      101.44985334     -80.76571849      11.35000000        2        0
Mo      97.71533916     -80.69277937      12.91355632        0        0
S       98.65116043     -79.11048199      14.47711265        1        0
S       98.65116043     -79.11048199      11.35000000        2        0
Mo      94.91664625     -79.03754287      12.91355632        0        0
S       95.85246751     -77.45524549      14.47711265        1        0
S       95.85246751     -77.45524549      11.35000000        2        0
Mo      92.11795333     -77.38230637      12.91355632        0        0
S       93.05377460     -75.80000899      14.47711265        1        0
S       93.05377460     -75.80000899      11.35000000        2        0
Mo      89.31926042     -75.72706987      12.91355632        0        0
S       90.25508169     -74.14477249      14.47711265        1        0
S       90.25508169     -74.14477249      11.35000000        2        0
Mo      86.52056751     -74.07183337      12.91355632        0        0
S       87.45638877     -72.48953599      14.47711265        1        0
S       87.45638877     -72.48953599      11.35000000        2        0
Mo      83.72187459     -72.41659687      12.91355632        0        0
S       84.65769586     -70.83429949      14.47711265        1        0
S       84.65769586     -70.83429949      11.35000000        2        0
Mo      80.92318168     -70.76136037      12.91355632        0        0
S       81.85900295     -69.17906300      14.47711265        1        0
S       81.85900295     -69.17906300      11.35000000        2        0
Mo      78.12448877     -69.10612387      12.91355632        0        0
S       79.06031003     -67.52382650      14.47711265        1        0
S       79.06031003     -67.52382650      11.35000000        2        0
Mo      75.32579585     -67.45088737      12.91355632        0        0
S       76.26161712     -65.86859000      14.47711265        1        0
S       76.26161712     -65.86859000      11.35000000        2        0
Mo      72.52710294     -65.79565087      12.91355632        0        0
S       73.46292421     -64.21335350      14.47711265        1        0
S       73.46292421     -64.21335350      11.35000000        2        0
Mo      69.72841003     -64.14041437      12.91355632        0        0
S       70.66423129     -62.55811700      14.47711265        1        0
S       70.66423129     -62.55811700      11.35000000        2        0
Mo      66.92971711     -62.48517787      12.91355632        0        0
S       67.86553838     -60.90288050      14.47711265        1        0
S       67.86553838     -60.90288050      11.35000000        2        0
Mo      64.13102420     -60.82994137      12.91355632        0        0
S       65.06684547     -59.24764400      14.47711265        1        0
S       65.06684547     -59.24764400      11.35000000        2        0
Mo      61.33233129     -59.17470487      12.91355632        0        0
S       62.26815255     -57.59240750      14.47711265        1        0
S       62.26815255     -57.59240750      11.35000000        2        0
Mo      58.53363837     -57.51946837      12.91355632        0        0
S       59.46945964     -55.93717100      14.47711265        1        0
S       59.46945964     -55.93717100      11.35000000        2        0
Mo      55.73494546     -55.86423187      12.91355632        0        0
S       56.67076673     -54.28193450      14.47711265        1        0
S       56.67076673     -54.28193450      11.35000000        2        0
Mo      52.93625255     -54.20899537      12.91355632        0        0
S       53.87207381     -52.62669800      14.47711265        1        0
S       53.87207381     -52.62669800      11.35000000        2        0
Mo      50.13755963     -52.55375887      12.91355632        0        0
S       51.07338090     -50.97146150      14.47711265        1        0
S       51.07338090     -50.97146150      11.35000000        2        0
Mo      47.33886672     -50.89852237      12.91355632        0        0
S       48.27468799     -49.31622500      14.47711265        1        0
S       48.27468799     -49.31622500      11.35000000        2        0
Mo      44.54017381     -49.24328587      12.91355632        0        0
S       45.47599507     -47.66098850      14.47711265        1        0
S       45.47599507     -47.66098850      11.35000000        2        0
Mo      41.74148089     -47.58804937      12.91355632        0        0
S       42.67730216     -46.00575200      14.47711265        1        0
S       42.67730216     -46.00575200      11.35000000        2        0
Mo      38.94278798     -45.93281287      12.91355632        0        0
S       39.87860925     -44.35051550      14.47711265        1        0
S       39.87860925     -44.35051550      11.35000000        2        0
Mo      36.14409507     -44.27757637      12.91355632        0        0
S       37.07991633     -42.69527900      14.47711265        1        0
S       37.07991633     -42.69527900      11.35000000        2        0
Mo      33.34540215     -42.62233987      12.91355632        0        0
S       34.28122342     -41.04004250      14.47711265        1        0
S       34.28122342     -41.04004250      11.35000000        2        0
Mo      30.54670924     -40.96710337      12.91355632        0        0
S       31.48253050     -39.38480600      14.47711265        1        0
S       31.48253050     -39.38480600      11.35000000        2        0
Mo      27.74801632     -39.31186687      12.91355632        0        0
S       28.68383759     -37.72956950      14.47711265        1        0
S       28.68383759     -37.72956950      11.35000000        2        0
Mo      24.94932341     -37.65663037      12.91355632        0        0
S       25.88514468     -36.07433300      14.47711265        1        0
S       25.88514468     -36.07433300      11.35000000        2        0
Mo      22.15063050     -36.00139387      12.91355632        0        0
S       23.08645176     -34.41909650      14.47711265        1        0
S       23.08645176     -34.41909650      11.35000000        2        0
Mo     174.23569906     -34.34615737      12.91355632        0        0
S       20.28775885     -32.76386000      14.47711265        1        0
S       20.28775885     -32.76386000      11.35000000        2        0
Mo     171.43700615     -32.69092087      12.91355632        0        0
S      172.37282742     -31.10862350      14.47711265        1        0
S      172.37282742     -31.10862350      11.35000000        2        0
Mo     118.26184079      -1.24142737      12.91355632        0        0
S      196.63954280    -133.79240208      14.47711265        1        0
S      196.63954280    -133.79240208      11.35000000        2        0
Mo     192.90502862    -133.71946295      12.91355632        0        0
S      193.84084989    -132.13716558      14.47711265        1        0
S      193.84084989    -132.13716558      11.35000000        2        0
Mo     190.10633571    -132.06422645      12.91355632        0        0
S      191.04215697    -130.48192908      14.47711265        1        0
S      191.04215697    -130.48192908      11.35000000        2        0
Mo     187.30764279    -130.40898995      12.91355632        0        0
S      188.24346406    -128.82669258      14.47711265        1        0
S      188.24346406    -128.82669258      11.35000000        2        0
Mo     184.50894988    -128.75375345      12.91355632        0        0
S      185.44477115    -127.17145608      14.47711265        1        0
S      185.44477115    -127.17145608      11.35000000        2        0
Mo     181.71025697    -127.09851695      12.91355632        0        0
S      182.64607823    -125.51621958      14.47711265        1        0
S      182.64607823    -125.51621958      11.35000000        2        0
Mo     178.91156405    -125.44328045      12.91355632        0        0
S      179.84738532    -123.86098308      14.47711265        1        0
S      179.84738532    -123.86098308      11.35000000        2        0
Mo     176.11287114    -123.78804395      12.91355632        0        0
S      177.04869241    -122.20574658      14.47711265        1        0
S      177.04869241    -122.20574658      11.35000000        2        0
Mo     173.31417823    -122.13280745      12.91355632        0        0
S      174.24999949    -120.55051008      14.47711265        1        0
S      174.24999949    -120.55051008      11.35000000        2        0
Mo     170.51548531    -120.47757095      12.91355632        0        0
S      171.45130658    -118.89527358      14.47711265        1        0
S      171.45130658    -118.89527358      11.35000000        2        0
Mo     167.71679240    -118.82233445      12.91355632        0        0
S      168.65261367    -117.24003708      14.47711265        1        0
S      168.65261367    -117.24003708      11.35000000        2        0
Mo     164.91809949    -117.16709795      12.91355632        0        0
S      165.85392075    -115.58480058      14.47711265        1        0
S      165.85392075    -115.58480058      11.35000000        2        0
Mo     162.11940657    -115.51186145      12.91355632        0        0
S      163.05522784    -113.92956408      14.47711265        1        0
S      163.05522784    -113.92956408      11.35000000        2        0
Mo     159.32071366    -113.85662495      12.91355632        0        0
S      160.25653493    -112.27432758      14.47711265        1        0
S      160.25653493    -112.27432758      11.35000000        2        0
Mo     156.52202075    -112.20138845      12.91355632        0        0
S      157.45784201    -110.61909108      14.47711265        1        0
S      157.45784201    -110.61909108      11.35000000        2        0
Mo     153.72332783    -110.54615195      12.91355632        0        0
S      154.65914910    -108.96385458      14.47711265        1        0
S      154.65914910    -108.96385458      11.35000000        2        0
Mo     150.92463492    -108.89091545      12.91355632        0        0
S      151.86045618    -107.30861808      14.47711265        1        0
S      151.86045618    -107.30861808      11.35000000        2        0
Mo     148.12594200    -107.23567895      12.91355632        0        0
S      149.06176327    -105.65338158      14.47711265        1        0
S      149.06176327    -105.65338158      11.35000000        2        0
Mo     145.32724909    -105.58044245      12.91355632        0        0
S      146.26307036    -103.99814508      14.47711265        1        0
S      146.26307036    -103.99814508      11.35000000        2        0
Mo     142.52855618    -103.92520595      12.91355632        0        0
S      143.46437744    -102.34290858      14.47711265        1        0
S      143.46437744    -102.34290858      11.35000000        2        0
Mo     139.72986326    -102.26996945      12.91355632        0        0
S      140.66568453    -100.68767208      14.47711265        1        0
S      140.66568453    -100.68767208      11.35000000        2        0
Mo     136.93117035    -100.61473295      12.91355632        0        0
S      137.86699162     -99.03243558      14.47711265        1        0
S      137.86699162     -99.03243558      11.35000000        2        0
Mo     134.13247744     -98.95949645      12.91355632        0        0
S      135.06829870     -97.37719908      14.47711265        1        0
S      135.06829870     -97.37719908      11.35000000        2        0
Mo     131.33378452     -97.30425995      12.91355632        0        0
S      132.26960579     -95.72196258      14.47711265        1        0
S      132.26960579     -95.72196258      11.35000000        2        0
Mo     128.53509161     -95.64902345      12.91355632        0        0
S      129.47091288     -94.06672608      14.47711265        1        0
S      129.47091288     -94.06672608      11.35000000        2        0
Mo     125.73639870     -93.99378695      12.91355632        0        0
S      126.67221996     -92.41148958      14.47711265        1        0
S      126.67221996     -92.41148958      11.35000000        2        0
Mo     122.93770578     -92.33855045      12.91355632        0        0
S      123.87352705     -90.75625308      14.47711265        1        0
S      123.87352705     -90.75625308      11.35000000        2        0
Mo     120.13901287     -90.68331395      12.91355632        0        0
S      121.07483414     -89.10101658      14.47711265        1        0
S      121.07483414     -89.10101658      11.35000000        2        0
Mo     117.34031996     -89.02807745      12.91355632        0        0
S      118.27614122     -87.44578008      14.47711265        1        0
S      118.27614122     -87.44578008      11.35000000        2        0
Mo     114.54162704     -87.37284095      12.91355632        0        0
S      115.47744831     -85.79054358      14.47711265        1        0
S      115.47744831     -85.79054358      11.35000000        2        0
Mo     111.74293413     -85.71760445      12.91355632        0        0
S      112.67875540     -84.13530708      14.47711265        1        0
S      112.67875540     -84.13530708      11.35000000        2        0
Mo     108.94424122     -84.06236795      12.91355632        0        0
S      109.88006248     -82.48007058      14.47711265        1        0
S      109.88006248     -82.48007058      11.35000000        2        0
Mo     106.14554830     -82.40713146      12.91355632        0        0
S      107.08136957     -80.82483408      14.47711265        1        0
S      107.08136957     -80.82483408      11.35000000        2        0
Mo     103.34685539     -80.75189496      12.91355632        0        0
S      104.28267666     -79.16959758      14.47711265        1        0
S      104.28267666     -79.16959758      11.35000000        2        0
Mo     100.54816248     -79.09665846      12.91355632        0        0
S      101.48398374     -77.51436108      14.47711265        1        0
S      101.48398374     -77.51436108      11.35000000        2        0
Mo      97.74946956     -77.44142196      12.91355632        0        0
S       98.68529083     -75.85912458      14.47711265        1        0
S       98.68529083     -75.85912458      11.35000000        2        0
Mo      94.95077665     -75.78618546      12.91355632        0        0
S       95.88659792     -74.20388808      14.47711265        1        0
S       95.88659792     -74.20388808      11.35000000        2        0
Mo      92.15208374     -74.13094896      12.91355632        0        0
S       93.08790500     -72.54865158      14.47711265        1        0
S       93.08790500     -72.54865158      11.35000000        2        0
Mo      89.35339082     -72.47571246      12.91355632        0        0
S       90.28921209     -70.89341508      14.47711265        1        0
S       90.28921209     -70.89341508      11.35000000        2        0
Mo      86.55469791     -70.82047596      12.91355632        0        0
S       87.49051918     -69.23817858      14.47711265        1        0
S       87.49051918     -69.23817858      11.35000000        2        0
Mo      83.75600500     -69.16523946      12.91355632        0        0
S       84.69182626     -67.58294208      14.47711265        1        0
S       84.69182626     -67.58294208      11.35000000        2        0
Mo      80.95731208     -67.51000296      12.91355632        0        0
S       81.89313335     -65.92770558      14.47711265        1        0
S       81.89313335     -65.92770558      11.35000000        2        0
Mo      78.15861917     -65.85476646      12.91355632        0        0
S       79.09444043     -64.27246908      14.47711265        1        0
S       79.09444043     -64.27246908      11.35000000        2        0
Mo      75.35992626     -64.19952996      12.91355632        0        0
S       76.29574752     -62.61723259      14.47711265        1        0
S       76.29574752     -62.61723259      11.35000000        2        0
Mo      72.56123334     -62.54429346      12.91355632        0        0
S       73.49705461     -60.96199609      14.47711265        1        0
S       73.49705461     -60.96199609      11.35000000        2        0
Mo      69.76254043     -60.88905696      12.91355632        0        0
S       70.69836169     -59.30675959      14.47711265        1        0
S       70.69836169     -59.30675959      11.35000000        2        0
Mo      66.96384751     -59.23382046      12.91355632        0        0
S       67.89966878     -57.65152309      14.47711265        1        0
S       67.89966878     -57.65152309      11.35000000        2        0
Mo      64.16515460     -57.57858396      12.91355632        0        0
S       65.10097587     -55.99628659      14.47711265        1        0
S       65.10097587     -55.99628659      11.35000000        2        0
Mo      61.36646169     -55.92334746      12.91355632        0        0
S       62.30228295     -54.34105009      14.47711265        1        0
S       62.30228295     -54.34105009      11.35000000        2        0
Mo      58.56776877     -54.26811096      12.91355632        0        0
S       59.50359004     -52.68581359      14.47711265        1        0
S       59.50359004     -52.68581359      11.35000000        2        0
Mo      55.76907586     -52.61287446      12.91355632        0        0
S       56.70489713     -51.03057709      14.47711265        1        0
S       56.70489713     -51.03057709      11.35000000        2        0
Mo      52.97038295     -50.95763796      12.91355632        0        0
S       53.90620421     -49.37534059      14.47711265        1        0
S       53.90620421     -49.37534059      11.35000000        2        0
Mo      50.17169003     -49.30240146      12.91355632        0        0
S       51.10751130     -47.72010409      14.47711265        1        0
S       51.10751130     -47.72010409      11.35000000        2        0
Mo      47.37299712     -47.64716496      12.91355632        0        0
S       48.30881839     -46.06486759      14.47711265        1        0
S       48.30881839     -46.06486759      11.35000000        2        0
Mo      44.57430421     -45.99192846      12.91355632        0        0
S       45.51012547     -44.40963109      14.47711265        1        0
S       45.51012547     -44.40963109      11.35000000        2        0
Mo      41.77561129     -44.33669196      12.91355632        0        0
S       42.71143256     -42.75439459      14.47711265        1        0
S       42.71143256     -42.75439459      11.35000000        2        0
Mo      38.97691838     -42.68145546      12.91355632        0        0
S       39.91273965     -41.09915809      14.47711265        1        0
S       39.91273965     -41.09915809      11.35000000        2        0
Mo      36.17822547     -41.02621896      12.91355632        0        0
S       37.11404673     -39.44392159      14.47711265        1        0
S       37.11404673     -39.44392159      11.35000000        2        0
Mo      33.37953255     -39.37098246      12.91355632        0        0
S       34.31535382     -37.78868509      14.47711265        1        0
S       34.31535382     -37.78868509      11.35000000        2        0
Mo      30.58083964     -37.71574596      12.91355632        0        0
S       31.51666091     -36.13344859      14.47711265        1        0
S       31.51666091     -36.13344859      11.35000000        2        0
Mo      27.78214673     -36.06050946      12.91355632        0        0
S       28.71796799     -34.47821209      14.47711265        1        0
S       28.71796799     -34.47821209      11.35000000        2        0
Mo      24.98345381     -34.40527296      12.91355632        0        0
S       25.91927508     -32.82297559      14.47711265        1        0
S       25.91927508     -32.82297559      11.35000000        2        0
Mo      22.18476090     -32.75003646      12.91355632        0        0
S       23.12058217     -31.16773909      14.47711265        1        0
S       23.12058217     -31.16773909      11.35000000        2        0
Mo      19.38606799     -31.09479996      12.91355632        0        0
S       20.32188925     -29.51250259      14.47711265        1        0
S       20.32188925     -29.51250259      11.35000000        2        0
Mo     171.47113655     -29.43956346      12.91355632        0        0
S       17.52319634     -27.85726609      14.47711265        1        0
S       17.52319634     -27.85726609      11.35000000        2        0
Mo     168.67244364     -27.78432696      12.91355632        0        0
S      169.60826490     -26.20202959      14.47711265        1        0
S      169.60826490     -26.20202959      11.35000000        2        0
Mo     123.89335702      -1.30054296      12.91355632        0        0
S      202.27105903    -133.85151767      14.47711265        1        0
S      202.27105903    -133.85151767      11.35000000        2        0
Mo     198.53654485    -133.77857854      12.91355632        0        0
S      199.47236611    -132.19628117      14.47711265        1        0
S      199.47236611    -132.19628117      11.35000000        2        0
Mo     195.73785194    -132.12334204      12.91355632        0        0
S      196.67367320    -130.54104467      14.47711265        1        0
S      196.67367320    -130.54104467      11.35000000        2        0
Mo     192.93915902    -130.46810554      12.91355632        0        0
S      193.87498029    -128.88580817      14.47711265        1        0
S      193.87498029    -128.88580817      11.35000000        2        0
Mo     190.14046611    -128.81286904      12.91355632        0        0
S      191.07628737    -127.23057167      14.47711265        1        0
S      191.07628737    -127.23057167      11.35000000        2        0
Mo     187.34177319    -127.15763254      12.91355632        0        0
S      188.27759446    -125.57533517      14.47711265        1        0
S      188.27759446    -125.57533517      11.35000000        2        0
Mo     184.54308028    -125.50239604      12.91355632        0        0
S      185.47890155    -123.92009867      14.47711265        1        0
S      185.47890155    -123.92009867      11.35000000        2        0
Mo     181.74438737    -123.84715954      12.91355632        0        0
S      182.68020863    -122.26486217      14.47711265        1        0
S      182.68020863    -122.26486217      11.35000000        2        0
Mo     178.94569445    -122.19192304      12.91355632        0        0
S      179.88151572    -120.60962567      14.47711265        1        0
S      179.88151572    -120.60962567      11.35000000        2        0
Mo     176.14700154    -120.53668654      12.91355632        0        0
S      177.08282281    -118.95438917      14.47711265        1        0
S      177.08282281    -118.95438917      11.35000000        2        0
Mo     173.34830863    -118.88145004      12.91355632        0        0
S      174.28412989    -117.29915267      14.47711265        1        0
S      174.28412989    -117.29915267      11.35000000        2        0
Mo     170.54961571    -117.22621354      12.91355632        0        0
S      171.48543698    -115.64391617      14.47711265        1        0
S      171.48543698    -115.64391617      11.35000000        2        0
Mo     167.75092280    -115.57097704      12.91355632        0        0
S      168.68674407    -113.98867967      14.47711265        1        0
S      168.68674407    -113.98867967      11.35000000        2        0
Mo     164.95222989    -113.91574054      12.91355632        0        0
S      165.88805115    -112.33344317      14.47711265        1        0
S      165.88805115    -112.33344317      11.35000000        2        0
Mo     162.15353697    -112.26050404      12.91355632        0        0
S      163.08935824    -110.67820667      14.47711265        1        0
S      163.08935824    -110.67820667      11.35000000        2        0
Mo     159.35484406    -110.60526754      12.91355632        0        0
S      160.29066533    -109.02297017      14.47711265        1        0
S      160.29066533    -109.02297017      11.35000000        2        0
Mo     156.55615115    -108.95003104      12.91355632        0        0
S      157.49197241    -107.36773367      14.47711265        1        0
S      157.49197241    -107.36773367      11.35000000        2        0
Mo     153.75745823    -107.29479454      12.91355632        0        0
S      154.69327950    -105.71249717      14.47711265        1        0
S      154.69327950    -105.71249717      11.35000000        2        0
Mo     150.95876532    -105.63955804      12.91355632        0        0
S      151.89458659    -104.05726067      14.47711265        1        0
S      151.89458659    -104.05726067      11.35000000        2        0
Mo     148.16007241    -103.98432154      12.91355632        0        0
S      149.09589367    -102.40202417      14.47711265        1        0
S      149.09589367    -102.40202417      11.35000000        2        0
Mo     145.36137949    -102.32908504      12.91355632        0        0
S      146.29720076    -100.74678767      14.47711265        1        0
S      146.29720076    -100.74678767      11.35000000        2        0
Mo     142.56268658    -100.67384854      12.91355632        0        0
S      143.49850785     -99.09155117      14.47711265        1        0
S      143.49850785     -99.09155117      11.35000000        2        0
Mo     139.76399367     -99.01861204      12.91355632        0        0
S      140.69981493     -97.43631467      14.47711265        1        0
S      140.69981493     -97.43631467      11.35000000        2        0
Mo     136.96530075     -97.36337554      12.91355632        0        0
S      137.90112202     -95.78107817      14.47711265        1        0
S      137.90112202     -95.78107817      11.35000000        2        0
Mo     134.16660784     -95.70813904      12.91355632        0        0
S      135.10242911     -94.12584167      14.47711265        1        0
S      135.10242911     -94.12584167      11.35000000        2        0
Mo     131.36791493     -94.05290254      12.91355632        0        0
S      132.30373619     -92.47060517      14.47711265        1        0
S      132.30373619     -92.47060517      11.35000000        2        0
Mo     128.56922201     -92.39766604      12.91355632        0        0
S      129.50504328     -90.81536867      14.47711265        1        0
S      129.50504328     -90.81536867      11.35000000        2        0
Mo     125.77052910     -90.74242954      12.91355632        0        0
S      126.70635037     -89.16013217      14.47711265        1        0
S      126.70635037     -89.16013217      11.35000000        2        0
Mo     122.97183619     -89.08719304      12.91355632        0        0
S      123.90765745     -87.50489567      14.47711265        1        0
S      123.90765745     -87.50489567      11.35000000        2        0
Mo     120.17314327     -87.43195654      12.91355632        0        0
S      121.10896454     -85.84965917      14.47711265        1        0
S      121.10896454     -85.84965917      11.35000000        2        0
Mo     117.37445036     -85.77672004      12.91355632        0        0
S      118.31027162     -84.19442267      14.47711265        1        0
S      118.31027162     -84.19442267      11.35000000        2        0
Mo     114.57575744     -84.12148354      12.91355632        0        0
S      115.51157871     -82.53918617      14.47711265        1        0
S      115.51157871     -82.53918617      11.35000000        2        0
Mo     111.77706453     -82.46624704      12.91355632        0        0
S      112.71288580     -80.88394967      14.47711265        1        0
S      112.71288580     -80.88394967      11.35000000        2        0
Mo     108.97837162     -80.81101054      12.91355632        0        0
S      109.91419288     -79.22871317      14.47711265        1        0
S      109.91419288     -79.22871317      11.35000000        2        0
Mo     106.17967870     -79.15577404      12.91355632        0        0
S      107.11549997     -77.57347667      14.47711265        1        0
S      107.11549997     -77.57347667      11.35000000        2        0
Mo     103.38098579     -77.50053754      12.91355632        0        0
S      104.31680706     -75.91824017      14.47711265        1        0
S      104.31680706     -75.91824017      11.35000000        2        0
Mo     100.58229288     -75.84530105      12.91355632        0        0
S      101.51811414     -74.26300367      14.47711265        1        0
S      101.51811414     -74.26300367      11.35000000        2        0
Mo      97.78359996     -74.19006455      12.91355632        0        0
S       98.71942123     -72.60776717      14.47711265        1        0
S       98.71942123     -72.60776717      11.35000000        2        0
Mo      94.98490705     -72.53482805      12.91355632        0        0
S       95.92072832     -70.95253067      14.47711265        1        0
S       95.92072832     -70.95253067      11.35000000        2        0
Mo      92.18621414     -70.87959155      12.91355632        0        0
S       93.12203540     -69.29729417      14.47711265        1        0
S       93.12203540     -69.29729417      11.35000000        2        0
Mo      89.38752122     -69.22435505      12.91355632        0        0
S       90.32334249     -67.64205767      14.47711265        1        0
S       90.32334249     -67.64205767      11.35000000        2        0
Mo      86.58882831     -67.56911855      12.91355632        0        0
S       87.52464958     -65.98682117      14.47711265        1        0
S       87.52464958     -65.98682117      11.35000000        2        0
Mo      83.79013540     -65.91388205      12.91355632        0        0
S       84.72595666     -64.33158467      14.47711265        1        0
S       84.72595666     -64.33158467      11.35000000        2        0
Mo      80.99144248     -64.25864555      12.91355632        0        0
S       81.92726375     -62.67634817      14.47711265        1        0
S       81.92726375     -62.67634817      11.35000000        2        0
Mo      78.19274957     -62.60340905      12.91355632        0        0
S       79.12857084     -61.02111167      14.47711265        1        0
S       79.12857084     -61.02111167      11.35000000        2        0
Mo      75.39405666     -60.94817255      12.91355632        0        0
S       76.32987792     -59.36587517      14.47711265        1        0
S       76.32987792     -59.36587517      11.35000000        2        0
Mo      72.59536374     -59.29293605      12.91355632        0        0
S       73.53118501     -57.71063867      14.47711265        1        0
S       73.53118501     -57.71063867      11.35000000        2        0
Mo      69.79667083     -57.63769955      12.91355632        0        0
S       70.73249210     -56.05540218      14.47711265        1        0
S       70.73249210     -56.05540218      11.35000000        2        0
Mo      66.99797792     -55.98246305      12.91355632        0        0
S       67.93379918     -54.40016568      14.47711265        1        0
S       67.93379918     -54.40016568      11.35000000        2        0
Mo      64.19928500     -54.32722655      12.91355632        0        0
S       65.13510627     -52.74492918      14.47711265        1        0
S       65.13510627     -52.74492918      11.35000000        2        0
Mo      61.40059209     -52.67199005      12.91355632        0        0
S       62.33641336     -51.08969268      14.47711265        1        0
S       62.33641336     -51.08969268      11.35000000        2        0
Mo      58.60189918     -51.01675355      12.91355632        0        0
S       59.53772044     -49.43445618      14.47711265        1        0
S       59.53772044     -49.43445618      11.35000000        2        0
Mo      55.80320626     -49.36151705      12.91355632        0        0
S       56.73902753     -47.77921968      14.47711265        1        0
S       56.73902753     -47.77921968      11.35000000        2        0
Mo      53.00451335     -47.70628055      12.91355632        0        0
S       53.94033462     -46.12398318      14.47711265        1        0
S       53.94033462     -46.12398318      11.35000000        2        0
Mo      50.20582044     -46.05104405      12.91355632        0        0
S       51.14164170     -44.46874668      14.47711265        1        0
S       51.14164170     -44.46874668      11.35000000        2        0
Mo      47.40712752     -44.39580755      12.91355632        0        0
S       48.34294879     -42.81351018      14.47711265        1        0
S       48.34294879     -42.81351018      11.35000000        2        0
Mo      44.60843461     -42.74057105      12.91355632        0        0
S       45.54425587     -41.15827368      14.47711265        1        0
S       45.54425587     -41.15827368      11.35000000        2        0
Mo      41.80974169     -41.08533455      12.91355632        0        0
S       42.74556296     -39.50303718      14.47711265        1        0
S       42.74556296     -39.50303718      11.35000000        2        0
Mo      39.01104878     -39.43009805      12.91355632        0        0
S       39.94687005     -37.84780068      14.47711265        1        0
S       39.94687005     -37.84780068      11.35000000        2        0
Mo      36.21235587     -37.77486155      12.91355632        0        0
S       37.14817713     -36.19256418      14.47711265        1        0
S       37.14817713     -36.19256418      11.35000000        2        0
Mo      33.41366295     -36.11962505      12.91355632        0        0
S       34.34948422     -34.53732768      14.47711265        1        0
S       34.34948422     -34.53732768      11.35000000        2        0
Mo      30.61497004     -34.46438855      12.91355632        0        0
S       31.55079131     -32.88209118      14.47711265        1        0
S       31.55079131     -32.88209118      11.35000000        2        0
Mo      27.81627713     -32.80915205      12.91355632        0        0
S       28.75209839     -31.22685468      14.47711265        1        0
S       28.75209839     -31.22685468      11.35000000        2        0
Mo      25.01758421     -31.15391555      12.91355632        0        0
S       25.95340548     -29.57161818      14.47711265        1        0
S       25.95340548     -29.57161818      11.35000000        2        0
Mo      22.21889130     -29.49867905      12.91355632        0        0
S       23.15471257     -27.91638168      14.47711265        1        0
S       23.15471257     -27.91638168      11.35000000        2        0
Mo      19.42019839     -27.84344255      12.91355632        0        0
S       20.35601965     -26.26114518      14.47711265        1        0
S       20.35601965     -26.26114518      11.35000000        2        0
Mo      16.62150547     -26.18820605      12.91355632        0        0
S       17.55732674     -24.60590868      14.47711265        1        0
S       17.55732674     -24.60590868      11.35000000        2        0
Mo     168.70657404     -24.53296955      12.91355632        0        0
S       14.75863383     -22.95067218      14.47711265        1        0
S       14.75863383     -22.95067218      11.35000000        2        0
Mo     165.90788113     -22.87773305      12.91355632        0        0
S      166.84370239     -21.29543568      14.47711265        1        0
S      166.84370239     -21.29543568      11.35000000        2        0
Mo     129.52487325      -1.35965855      12.91355632        0        0
S      207.90257526    -133.91063326      14.47711265        1        0
S      207.90257526    -133.91063326      11.35000000        2        0
Mo     204.16806108    -133.83769413      12.91355632        0        0
S      205.10388234    -132.25539676      14.47711265        1        0
S      205.10388234    -132.25539676      11.35000000        2        0
Mo     201.36936816    -132.18245763      12.91355632        0        0
S      202.30518943    -130.60016026      14.47711265        1        0
S      202.30518943    -130.60016026      11.35000000        2        0
Mo     198.57067525    -130.52722113      12.91355632        0        0
S      199.50649652    -128.94492376      14.47711265        1        0
S      199.50649652    -128.94492376      11.35000000        2        0
Mo     195.77198234    -128.87198463      12.91355632        0        0
S      196.70780360    -127.28968726      14.47711265        1        0
S      196.70780360    -127.28968726      11.35000000        2        0
Mo     192.97328942    -127.21674813      12.91355632        0        0
S      193.90911069    -125.63445076      14.47711265        1        0
S      193.90911069    -125.63445076      11.35000000        2        0
Mo     190.17459651    -125.56151163      12.91355632        0        0
S      191.11041778    -123.97921426      14.47711265        1        0
S      191.11041778    -123.97921426      11.35000000        2        0
Mo     187.37590360    -123.90627513      12.91355632        0        0
S      188.31172486    -122.32397776      14.47711265        1        0
S      188.31172486    -122.32397776      11.35000000        2        0
Mo     184.57721068    -122.25103863      12.91355632        0        0
S      185.51303195    -120.66874126      14.47711265        1        0
S      185.51303195    -120.66874126      11.35000000        2        0
Mo     181.77851777    -120.59580213      12.91355632        0        0
S      182.71433904    -119.01350476      14.47711265        1        0
S      182.71433904    -119.01350476      11.35000000        2        0
Mo     178.97982486    -118.94056563      12.91355632        0        0
S      179.91564612    -117.35826826      14.47711265        1        0
S      179.91564612    -117.35826826      11.35000000        2        0
Mo     176.18113194    -117.28532913      12.91355632        0        0
S      177.11695321    -115.70303176      14.47711265        1        0
S      177.11695321    -115.70303176      11.35000000        2        0
Mo     173.38243903    -115.63009263      12.91355632        0        0
S      174.31826030    -114.04779526      14.47711265        1        0
S      174.31826030    -114.04779526      11.35000000        2        0
Mo     170.58374612    -113.97485613      12.91355632        0        0
S      171.51956738    -112.39255876      14.47711265        1        0
S      171.51956738    -112.39255876      11.35000000        2        0
Mo     167.78505320    -112.31961963      12.91355632        0        0
S      168.72087447    -110.73732226      14.47711265        1        0
S      168.72087447    -110.73732226      11.35000000        2        0
Mo     164.98636029    -110.66438313      12.91355632        0        0
S      165.92218155    -109.08208576      14.47711265        1        0
S      165.92218155    -109.08208576      11.35000000        2        0
Mo     162.18766737    -109.00914663      12.91355632        0        0
S      163.12348864    -107.42684926      14.47711265        1        0
S      163.12348864    -107.42684926      11.35000000        2        0
Mo     159.38897446    -107.35391013      12.91355632        0        0
S      160.32479573    -105.77161276      14.47711265        1        0
S      160.32479573    -105.77161276      11.35000000        2        0
Mo     156.59028155    -105.69867363      12.91355632        0        0
S      157.52610281    -104.11637626      14.47711265        1        0
S      157.52610281    -104.11637626      11.35000000        2        0
Mo     153.79158863    -104.04343713      12.91355632        0        0
S      154.72740990    -102.46113976      14.47711265        1        0
S      154.72740990    -102.46113976      11.35000000        2        0
Mo     150.99289572    -102.38820063      12.91355632        0        0
S      151.92871699    -100.80590326      14.47711265        1        0
S      151.92871699    -100.80590326      11.35000000        2        0
Mo     148.19420281    -100.73296413      12.91355632        0        0
S      149.13002407     -99.15066676      14.47711265        1        0
S      149.13002407     -99.15066676      11.35000000        2        0
Mo     145.39550989     -99.07772763      12.91355632        0        0
S      146.33133116     -97.49543026      14.47711265        1        0
S      146.33133116     -97.49543026      11.35000000        2        0
Mo     142.59681698     -97.42249113      12.91355632        0        0
S      143.53263825     -95.84019376      14.47711265        1        0
S      143.53263825     -95.84019376      11.35000000        2        0
Mo     139.79812407     -95.76725463      12.91355632        0        0
S      140.73394533     -94.18495726      14.47711265        1        0
S      140.73394533     -94.18495726      11.35000000        2        0
Mo     136.99943115     -94.11201813      12.91355632        0        0
S      137.93525242     -92.52972076      14.47711265        1        0
S      137.93525242     -92.52972076      11.35000000        2        0
Mo     134.20073824     -92.45678163      12.91355632        0        0
S      135.13655951     -90.87448426      14.47711265        1        0
S      135.13655951     -90.87448426      11.35000000        2        0
Mo     131.40204533     -90.80154513      12.91355632        0        0
S      132.33786659     -89.21924776      14.47711265        1        0
S      132.33786659     -89.21924776      11.35000000        2        0
Mo     128.60335241     -89.14630863      12.91355632        0        0
S      129.53917368     -87.56401126      14.47711265        1        0
S      129.53917368     -87.56401126      11.35000000        2        0
Mo     125.80465950     -87.49107213      12.91355632        0        0
S      126.74048077     -85.90877476      14.47711265        1        0
S      126.74048077     -85.90877476      11.35000000        2        0
Mo     123.00596659     -85.83583563      12.91355632        0        0
S      123.94178785     -84.25353826      14.47711265        1        0
S      123.94178785     -84.25353826      11.35000000        2        0
Mo     120.20727367     -84.18059913      12.91355632        0        0
S      121.14309494     -82.59830176      14.47711265        1        0
S      121.14309494     -82.59830176      11.35000000        2        0
Mo     117.40858076     -82.52536263      12.91355632        0        0
S      118.34440203     -80.94306526      14.47711265        1        0
S      118.34440203     -80.94306526      11.35000000        2        0
Mo     114.60988785     -80.87012613      12.91355632        0        0
S      115.54570911     -79.28782876      14.47711265        1        0
S      115.54570911     -79.28782876      11.35000000        2        0
Mo     111.81119493     -79.21488963      12.91355632        0        0
S      112.74701620     -77.63259226      14.47711265        1        0
S      112.74701620     -77.63259226      11.35000000        2        0
Mo     109.01250202     -77.55965313      12.91355632        0        0
S      109.94832329     -75.97735576      14.47711265        1        0
S      109.94832329     -75.97735576      11.35000000        2        0
Mo     106.21380911     -75.90441663      12.91355632        0        0
S      107.14963037     -74.32211926      14.47711265        1        0
S      107.14963037     -74.32211926      11.35000000        2        0
Mo     103.41511619     -74.24918013      12.91355632        0        0
S      104.35093746     -72.66688276      14.47711265        1        0
S      104.35093746     -72.66688276      11.35000000        2        0
Mo     100.61642328     -72.59394363      12.91355632        0        0
S      101.55224455     -71.01164626      14.47711265        1        0
S      101.55224455     -71.01164626      11.35000000        2        0
Mo      97.81773037     -70.93870713      12.91355632        0        0
S       98.75355163     -69.35640976      14.47711265        1        0
S       98.75355163     -69.35640976      11.35000000        2        0
Mo      95.01903745     -69.28347064      12.91355632        0        0
S       95.95485872     -67.70117326      14.47711265        1        0
S       95.95485872     -67.70117326      11.35000000        2        0
Mo      92.22034454     -67.62823414      12.91355632        0        0
S       93.15616580     -66.04593676      14.47711265        1        0
S       93.15616580     -66.04593676      11.35000000        2        0
Mo      89.42165163     -65.97299764      12.91355632        0        0
S       90.35747289     -64.39070026      14.47711265        1        0
S       90.35747289     -64.39070026      11.35000000        2        0
Mo      86.62295871     -64.31776114      12.91355632        0        0
S       87.55877998     -62.73546376      14.47711265        1        0
S       87.55877998     -62.73546376      11.35000000        2        0
Mo      83.82426580     -62.66252464      12.91355632        0        0
S       84.76008706     -61.08022726      14.47711265        1        0
S       84.76008706     -61.08022726      11.35000000        2        0
Mo      81.02557288     -61.00728814      12.91355632        0        0
S       81.96139415     -59.42499076      14.47711265        1        0
S       81.96139415     -59.42499076      11.35000000        2        0
Mo      78.22687997     -59.35205164      12.91355632        0        0
S       79.16270124     -57.76975426      14.47711265        1        0
S       79.16270124     -57.76975426      11.35000000        2        0
Mo      75.42818706     -57.69681514      12.91355632        0        0
S       76.36400832     -56.11451776      14.47711265        1        0
S       76.36400832     -56.11451776      11.35000000        2        0
Mo      72.62949414     -56.04157864      12.91355632        0        0
S       73.56531541     -54.45928126      14.47711265        1        0
S       73.56531541     -54.45928126      11.35000000        2        0
Mo      69.83080123     -54.38634214      12.91355632        0        0
S       70.76662250     -52.80404476      14.47711265        1        0
S       70.76662250     -52.80404476      11.35000000        2        0
Mo      67.03210832     -52.73110564      12.91355632        0        0
S       67.96792958     -51.14880826      14.47711265        1        0
S       67.96792958     -51.14880826      11.35000000        2        0
Mo      64.23341540     -51.07586914      12.91355632        0        0
S       65.16923667     -49.49357177      14.47711265        1        0
S       65.16923667     -49.49357177      11.35000000        2        0
Mo      61.43472249     -49.42063264      12.91355632        0        0
S       62.37054376     -47.83833527      14.47711265        1        0
S       62.37054376     -47.83833527      11.35000000        2        0
Mo      58.63602958     -47.76539614      12.91355632        0        0
S       59.57185084     -46.18309877      14.47711265        1        0
S       59.57185084     -46.18309877      11.35000000        2        0
Mo      55.83733666     -46.11015964      12.91355632        0        0
S       56.77315793     -44.52786227      14.47711265        1        0
S       56.77315793     -44.52786227      11.35000000        2        0
Mo      53.03864375     -44.45492314      12.91355632        0        0
S       53.97446502     -42.87262577      14.47711265        1        0
S       53.97446502     -42.87262577      11.35000000        2        0
Mo      50.23995084     -42.79968664      12.91355632        0        0
S       51.17577210     -41.21738927      14.47711265        1        0
S       51.17577210     -41.21738927      11.35000000        2        0
Mo      47.44125792     -41.14445014      12.91355632        0        0
S       48.37707919     -39.56215277      14.47711265        1        0
S       48.37707919     -39.56215277      11.35000000        2        0
Mo      44.64256501     -39.48921364      12.91355632        0        0
S       45.57838628     -37.90691627      14.47711265        1        0
S       45.57838628     -37.90691627      11.35000000        2        0
Mo      41.84387210     -37.83397714      12.91355632        0        0
S       42.77969336     -36.25167977      14.47711265        1        0
S       42.77969336     -36.25167977      11.35000000        2        0
Mo      39.04517918     -36.17874064      12.91355632        0        0
S       39.98100045     -34.59644327      14.47711265        1        0
S       39.98100045     -34.59644327      11.35000000        2        0
Mo      36.24648627     -34.52350414      12.91355632        0        0
S       37.18230754     -32.94120677      14.47711265        1        0
S       37.18230754     -32.94120677      11.35000000        2        0
Mo      33.44779336     -32.86826764      12.91355632        0        0
S       34.38361462     -31.28597027      14.47711265        1        0
S       34.38361462     -31.28597027      11.35000000        2        0
Mo      30.64910044     -31.21303114      12.91355632        0        0
S       31.58492171     -29.63073377      14.47711265        1        0
S       31.58492171     -29.63073377      11.35000000        2        0
Mo      27.85040753     -29.55779464      12.91355632        0        0
S       28.78622880     -27.97549727      14.47711265        1        0
S       28.78622880     -27.97549727      11.35000000        2        0
Mo      25.05171462     -27.90255814      12.91355632        0        0
S       25.98753588     -26.32026077      14.47711265        1        0
S       25.98753588     -26.32026077      11.35000000        2        0
Mo      22.25302170     -26.24732164      12.91355632        0        0
S       23.18884297     -24.66502427      14.47711265        1        0
S       23.18884297     -24.66502427      11.35000000        2        0
Mo      19.45432879     -24.59208514      12.91355632        0        0
S       20.39015006     -23.00978777      14.47711265        1        0
S       20.39015006     -23.00978777      11.35000000        2        0
Mo      16.65563588     -22.93684864      12.91355632        0        0
S       17.59145714     -21.35455127      14.47711265        1        0
S       17.59145714     -21.35455127      11.35000000        2        0
Mo      13.85694296     -21.28161214      12.91355632        0        0
S       14.79276423     -19.69931477      14.47711265        1        0
S       14.79276423     -19.69931477      11.35000000        2        0
Mo     165.94201153     -19.62637564      12.91355632        0        0
S       11.99407131     -18.04407827      14.47711265        1        0
S       11.99407131     -18.04407827      11.35000000        2        0
Mo     163.14331861     -17.97113914      12.91355632        0        0
S      164.07913988     -16.38884177      14.47711265        1        0
S      164.07913988     -16.38884177      11.35000000        2        0
Mo     135.15638948      -1.41877414      12.91355632        0        0
S      213.53409148    -133.96974885      14.47711265        1        0
S      213.53409148    -133.96974885      11.35000000        2        0
Mo     209.79957731    -133.89680972      12.91355632        0        0
S      210.73539857    -132.31451235      14.47711265        1        0
S      210.73539857    -132.31451235      11.35000000        2        0
Mo     207.00088439    -132.24157322      12.91355632        0        0
S      207.93670566    -130.65927585      14.47711265        1        0
S      207.93670566    -130.65927585      11.35000000        2        0
Mo     204.20219148    -130.58633672      12.91355632        0        0
S      205.13801274    -129.00403935      14.47711265        1        0
S      205.13801274    -129.00403935      11.35000000        2        0
Mo     201.40349856    -128.93110022      12.91355632        0        0
S      202.33931983    -127.34880285      14.47711265        1        0
S      202.33931983    -127.34880285      11.35000000        2        0
Mo     198.60480565    -127.27586372      12.91355632        0        0
S      199.54062692    -125.69356635      14.47711265        1        0
S      199.54062692    -125.69356635      11.35000000        2        0
Mo     195.80611274    -125.62062722      12.91355632        0        0
S      196.74193400    -124.03832985      14.47711265        1        0
S      196.74193400    -124.03832985      11.35000000        2        0
Mo     193.00741982    -123.96539072      12.91355632        0        0
S      193.94324109    -122.38309335      14.47711265        1        0
S      193.94324109    -122.38309335      11.35000000        2        0
Mo     190.20872691    -122.31015422      12.91355632        0        0
S      191.14454818    -120.72785685      14.47711265        1        0
S      191.14454818    -120.72785685      11.35000000        2        0
Mo     187.41003400    -120.65491772      12.91355632        0        0
S      188.34585526    -119.07262035      14.47711265        1        0
S      188.34585526    -119.07262035      11.35000000        2        0
Mo     184.61134108    -118.99968122      12.91355632        0        0
S      185.54716235    -117.41738385      14.47711265        1        0
S      185.54716235    -117.41738385      11.35000000        2        0
Mo     181.81264817    -117.34444472      12.91355632        0        0
S      182.74846944    -115.76214735      14.47711265        1        0
S      182.74846944    -115.76214735      11.35000000        2        0
Mo     179.01395526    -115.68920822      12.91355632        0        0
S      179.94977652    -114.10691085      14.47711265        1        0
S      179.94977652    -114.10691085      11.35000000        2        0
Mo     176.21526234    -114.03397172      12.91355632        0        0
S      177.15108361    -112.45167435      14.47711265        1        0
S      177.15108361    -112.45167435      11.35000000        2        0
Mo     173.41656943    -112.37873522      12.91355632        0        0
S      174.35239070    -110.79643785      14.47711265        1        0
S      174.35239070    -110.79643785      11.35000000        2        0
Mo     170.61787652    -110.72349872      12.91355632        0        0
S      171.55369778    -109.14120135      14.47711265        1        0
S      171.55369778    -109.14120135      11.35000000        2        0
Mo     167.81918360    -109.06826222      12.91355632        0        0
S      168.75500487    -107.48596485      14.47711265        1        0
S      168.75500487    -107.48596485      11.35000000        2        0
Mo     165.02049069    -107.41302572      12.91355632        0        0
S      165.95631196    -105.83072835      14.47711265        1        0
S      165.95631196    -105.83072835      11.35000000        2        0
Mo     162.22179778    -105.75778922      12.91355632        0        0
S      163.15761904    -104.17549185      14.47711265        1        0
S      163.15761904    -104.17549185      11.35000000        2        0
Mo     159.42310486    -104.10255272      12.91355632        0        0
S      160.35892613    -102.52025535      14.47711265        1        0
S      160.35892613    -102.52025535      11.35000000        2        0
Mo     156.62441195    -102.44731622      12.91355632        0        0
S      157.56023322    -100.86501885      14.47711265        1        0
S      157.56023322    -100.86501885      11.35000000        2        0
Mo     153.82571904    -100.79207972      12.91355632        0        0
S      154.76154030     -99.20978235      14.47711265        1        0
S      154.76154030     -99.20978235      11.35000000        2        0
Mo     151.02702612     -99.13684322      12.91355632        0        0
S      151.96284739     -97.55454585      14.47711265        1        0
S      151.96284739     -97.55454585      11.35000000        2        0
Mo     148.22833321     -97.48160672      12.91355632        0        0
S      149.16415448     -95.89930935      14.47711265        1        0
S      149.16415448     -95.89930935      11.35000000        2        0
Mo     145.42964030     -95.82637022      12.91355632        0        0
S      146.36546156     -94.24407285      14.47711265        1        0
S      146.36546156     -94.24407285      11.35000000        2        0
Mo     142.63094738     -94.17113372      12.91355632        0        0
S      143.56676865     -92.58883635      14.47711265        1        0
S      143.56676865     -92.58883635      11.35000000        2        0
Mo     139.83225447     -92.51589722      12.91355632        0        0
S      140.76807574     -90.93359985      14.47711265        1        0
S      140.76807574     -90.93359985      11.35000000        2        0
Mo     137.03356156     -90.86066072      12.91355632        0        0
S      137.96938282     -89.27836335      14.47711265        1        0
S      137.96938282     -89.27836335      11.35000000        2        0
Mo     134.23486864     -89.20542422      12.91355632        0        0
S      135.17068991     -87.62312685      14.47711265        1        0
S      135.17068991     -87.62312685      11.35000000        2        0
Mo     131.43617573     -87.55018772      12.91355632        0        0
S      132.37199699     -85.96789035      14.47711265        1        0
S      132.37199699     -85.96789035      11.35000000        2        0
Mo     128.63748281     -85.89495122      12.91355632        0        0
S      129.57330408     -84.31265385      14.47711265        1        0
S      129.57330408     -84.31265385      11.35000000        2        0
Mo     125.83878990     -84.23971472      12.91355632        0        0
S      126.77461117     -82.65741735      14.47711265        1        0
S      126.77461117     -82.65741735      11.35000000        2        0
Mo     123.04009699     -82.58447822      12.91355632        0        0
S      123.97591825     -81.00218085      14.47711265        1        0
S      123.97591825     -81.00218085      11.35000000        2        0
Mo     120.24140407     -80.92924172      12.91355632        0        0
S      121.17722534     -79.34694435      14.47711265        1        0
S      121.17722534     -79.34694435      11.35000000        2        0
Mo     117.44271116     -79.27400522      12.91355632        0        0
S      118.37853243     -77.69170785      14.47711265        1        0
S      118.37853243     -77.69170785      11.35000000        2        0
Mo     114.64401825     -77.61876872      12.91355632        0        0
S      115.57983951     -76.03647135      14.47711265        1        0
S      115.57983951     -76.03647135      11.35000000        2        0
Mo     111.84532533     -75.96353222      12.91355632        0        0
S      112.78114660     -74.38123485      14.47711265        1        0
S      112.78114660     -74.38123485      11.35000000        2        0
Mo     109.04663242     -74.30829572      12.91355632        0        0
S      109.98245369     -72.72599835      14.47711265        1        0
S      109.98245369     -72.72599835      11.35000000        2        0
Mo     106.24793951     -72.65305922      12.91355632        0        0
S      107.18376077     -71.07076185      14.47711265        1        0
S      107.18376077     -71.07076185      11.35000000        2        0
Mo     103.44924659     -70.99782272      12.91355632        0        0
S      104.38506786     -69.41552535      14.47711265        1        0
S      104.38506786     -69.41552535      11.35000000        2        0
Mo     100.65055368     -69.34258622      12.91355632        0        0
S      101.58637495     -67.76028885      14.47711265        1        0
S      101.58637495     -67.76028885      11.35000000        2        0
Mo      97.85186077     -67.68734972      12.91355632        0        0
S       98.78768203     -66.10505235      14.47711265        1        0
S       98.78768203     -66.10505235      11.35000000        2        0
Mo      95.05316785     -66.03211322      12.91355632        0        0
S       95.98898912     -64.44981585      14.47711265        1        0
S       95.98898912     -64.44981585      11.35000000        2        0
Mo      92.25447494     -64.37687672      12.91355632        0        0
S       93.19029621     -62.79457935      14.47711265        1        0
S       93.19029621     -62.79457935      11.35000000        2        0
Mo      89.45578203     -62.72164023      12.91355632        0        0
S       90.39160329     -61.13934285      14.47711265        1        0
S       90.39160329     -61.13934285      11.35000000        2        0
Mo      86.65708911     -61.06640373      12.91355632        0        0
S       87.59291038     -59.48410635      14.47711265        1        0
S       87.59291038     -59.48410635      11.35000000        2        0
Mo      83.85839620     -59.41116723      12.91355632        0        0
S       84.79421747     -57.82886985      14.47711265        1        0
S       84.79421747     -57.82886985      11.35000000        2        0
Mo      81.05970329     -57.75593073      12.91355632        0        0
S       81.99552455     -56.17363335      14.47711265        1        0
S       81.99552455     -56.17363335      11.35000000        2        0
Mo      78.26101037     -56.10069423      12.91355632        0        0
S       79.19683164     -54.51839685      14.47711265        1        0
S       79.19683164     -54.51839685      11.35000000        2        0
Mo      75.46231746     -54.44545773      12.91355632        0        0
S       76.39813873     -52.86316035      14.47711265        1        0
S       76.39813873     -52.86316035      11.35000000        2        0
Mo      72.66362455     -52.79022123      12.91355632        0        0
S       73.59944581     -51.20792385      14.47711265        1        0
S       73.59944581     -51.20792385      11.35000000        2        0
Mo      69.86493163     -51.13498473      12.91355632        0        0
S       70.80075290     -49.55268735      14.47711265        1        0
S       70.80075290     -49.55268735      11.35000000        2        0
Mo      67.06623872     -49.47974823      12.91355632        0        0
S       68.00205999     -47.89745085      14.47711265        1        0
S       68.00205999     -47.89745085      11.35000000        2        0
Mo      64.26754581     -47.82451173      12.91355632        0        0
S       65.20336707     -46.24221435      14.47711265        1        0
S       65.20336707     -46.24221435      11.35000000        2        0
Mo      61.46885289     -46.16927523      12.91355632        0        0
S       62.40467416     -44.58697785      14.47711265        1        0
S       62.40467416     -44.58697785      11.35000000        2        0
Mo      58.67015998     -44.51403873      12.91355632        0        0
S       59.60598124     -42.93174136      14.47711265        1        0
S       59.60598124     -42.93174136      11.35000000        2        0
Mo      55.87146706     -42.85880223      12.91355632        0        0
S       56.80728833     -41.27650486      14.47711265        1        0
S       56.80728833     -41.27650486      11.35000000        2        0
Mo      53.07277415     -41.20356573      12.91355632        0        0
S       54.00859542     -39.62126836      14.47711265        1        0
S       54.00859542     -39.62126836      11.35000000        2        0
Mo      50.27408124     -39.54832923      12.91355632        0        0
S       51.20990250     -37.96603186      14.47711265        1        0
S       51.20990250     -37.96603186      11.35000000        2        0
Mo      47.47538832     -37.89309273      12.91355632        0        0
S       48.41120959     -36.31079536      14.47711265        1        0
S       48.41120959     -36.31079536      11.35000000        2        0
Mo      44.67669541     -36.23785623      12.91355632        0        0
S       45.61251668     -34.65555886      14.47711265        1        0
S       45.61251668     -34.65555886      11.35000000        2        0
Mo      41.87800250     -34.58261973      12.91355632        0        0
S       42.81382376     -33.00032236      14.47711265        1        0
S       42.81382376     -33.00032236      11.35000000        2        0
Mo      39.07930958     -32.92738323      12.91355632        0        0
S       40.01513085     -31.34508586      14.47711265        1        0
S       40.01513085     -31.34508586      11.35000000        2        0
Mo      36.28061667     -31.27214673      12.91355632        0        0
S       37.21643794     -29.68984936      14.47711265        1        0
S       37.21643794     -29.68984936      11.35000000        2        0
Mo      33.48192376     -29.61691023      12.91355632        0        0
S       34.41774502     -28.03461286      14.47711265        1        0
S       34.41774502     -28.03461286      11.35000000        2        0
Mo      30.68323084     -27.96167373      12.91355632        0        0
S       31.61905211     -26.37937636      14.47711265        1        0
S       31.61905211     -26.37937636      11.35000000        2        0
Mo      27.88453793     -26.30643723      12.91355632        0        0
S       28.82035920     -24.72413986      14.47711265        1        0
S       28.82035920     -24.72413986      11.35000000        2        0
Mo      25.08584502     -24.65120073      12.91355632        0        0
S       26.02166628     -23.06890336      14.47711265        1        0
S       26.02166628     -23.06890336      11.35000000        2        0
Mo      22.28715210     -22.99596423      12.91355632        0        0
S       23.22297337     -21.41366686      14.47711265        1        0
S       23.22297337     -21.41366686      11.35000000        2        0
Mo      19.48845919     -21.34072773      12.91355632        0        0
S       20.42428046     -19.75843036      14.47711265        1        0
S       20.42428046     -19.75843036      11.35000000        2        0
Mo      16.68976628     -19.68549123      12.91355632        0        0
S       17.62558754     -18.10319386      14.47711265        1        0
S       17.62558754     -18.10319386      11.35000000        2        0
Mo      13.89107336     -18.03025473      12.91355632        0        0
S       14.82689463     -16.44795736      14.47711265        1        0
S       14.82689463     -16.44795736      11.35000000        2        0
Mo      11.09238045     -16.37501823      12.91355632        0        0
S       12.02820172     -14.79272086      14.47711265        1        0
S       12.02820172     -14.79272086      11.35000000        2        0
Mo     163.17744902     -14.71978173      12.91355632        0        0
S        9.22950880     -13.13748436      14.47711265        1        0
S        9.22950880     -13.13748436      11.35000000        2        0
Mo     160.37875610     -13.06454523      12.91355632        0        0
S      161.31457737     -11.48224786      14.47711265        1        0
S      161.31457737     -11.48224786      11.35000000        2        0
Mo     140.78790571      -1.47788973      12.91355632        0        0
S      219.16560771    -134.02886443      14.47711265        1        0
S      219.16560771    -134.02886443      11.35000000        2        0
Mo     215.43109353    -133.95592531      12.91355632        0        0
S      216.36691480    -132.37362793      14.47711265        1        0
S      216.36691480    -132.37362793      11.35000000        2        0
Mo     212.63240062    -132.30068881      12.91355632        0        0
S      213.56822189    -130.71839143      14.47711265        1        0
S      213.56822189    -130.71839143      11.35000000        2        0
Mo     209.83370771    -130.64545231      12.91355632        0        0
S      210.76952897    -129.06315493      14.47711265        1        0
S      210.76952897    -129.06315493      11.35000000        2        0
Mo     207.03501479    -128.99021581      12.91355632        0        0
S      207.97083606    -127.40791844      14.47711265        1        0
S      207.97083606    -127.40791844      11.35000000        2        0
Mo     204.23632188    -127.33497931      12.91355632        0        0
S      205.17214315    -125.75268194      14.47711265        1        0
S      205.17214315    -125.75268194      11.35000000        2        0
Mo     201.43762897    -125.67974281      12.91355632        0        0
S      202.37345023    -124.09744544      14.47711265        1        0
S      202.37345023    -124.09744544      11.35000000        2        0
Mo     198.63893605    -124.02450631      12.91355632        0        0
S      199.57475732    -122.44220894      14.47711265        1        0
S      199.57475732    -122.44220894      11.35000000        2        0
Mo     195.84024314    -122.36926981      12.91355632        0        0
S      196.77606441    -120.78697244      14.47711265        1        0
S      196.77606441    -120.78697244      11.35000000        2        0
Mo     193.04155023    -120.71403331      12.91355632        0        0
S      193.97737149    -119.13173594      14.47711265        1        0
S      193.97737149    -119.13173594      11.35000000        2        0
Mo     190.24285731    -119.05879681      12.91355632        0        0
S      191.17867858    -117.47649944      14.47711265        1        0
S      191.17867858    -117.47649944      11.35000000        2        0
Mo     187.44416440    -117.40356031      12.91355632        0        0
S      188.37998567    -115.82126294      14.47711265        1        0
S      188.37998567    -115.82126294      11.35000000        2        0
Mo     184.64547149    -115.74832381      12.91355632        0        0
S      185.58129275    -114.16602644      14.47711265        1        0
S      185.58129275    -114.16602644      11.35000000        2        0
Mo     181.84677857    -114.09308731      12.91355632        0        0
S      182.78259984    -112.51078994      14.47711265        1        0
S      182.78259984    -112.51078994      11.35000000        2        0
Mo     179.04808566    -112.43785081      12.91355632        0        0
S      179.98390692    -110.85555344      14.47711265        1        0
S      179.98390692    -110.85555344      11.35000000        2        0
Mo     176.24939274    -110.78261431      12.91355632        0        0
S      177.18521401    -109.20031694      14.47711265        1        0
S      177.18521401    -109.20031694      11.35000000        2        0
Mo     173.45069983    -109.12737781      12.91355632        0        0
S      174.38652110    -107.54508044      14.47711265        1        0
S      174.38652110    -107.54508044      11.35000000        2        0
Mo     170.65200692    -107.47214131      12.91355632        0        0
S      171.58782818    -105.88984394      14.47711265        1        0
S      171.58782818    -105.88984394      11.35000000        2        0
Mo     167.85331400    -105.81690481      12.91355632        0        0
S      168.78913527    -104.23460744      14.47711265        1        0
S      168.78913527    -104.23460744      11.35000000        2        0
Mo     165.05462109    -104.16166831      12.91355632        0        0
S      165.99044236    -102.57937094      14.47711265        1        0
S      165.99044236    -102.57937094      11.35000000        2        0
Mo     162.25592818    -102.50643181      12.91355632        0        0
S      163.19174944    -100.92413444      14.47711265        1        0
S      163.19174944    -100.92413444      11.35000000        2        0
Mo     159.45723526    -100.85119531      12.91355632        0        0
S      160.39305653     -99.26889794      14.47711265        1        0
S      160.39305653     -99.26889794      11.35000000        2        0
Mo     156.65854235     -99.19595881      12.91355632        0        0
S      157.59436362     -97.61366144      14.47711265        1        0
S      157.59436362     -97.61366144      11.35000000        2        0
Mo     153.85984944     -97.54072231      12.91355632        0        0
S      154.79567070     -95.95842494      14.47711265        1        0
S      154.79567070     -95.95842494      11.35000000        2        0
Mo     151.06115652     -95.88548581      12.91355632        0        0
S      151.99697779     -94.30318844      14.47711265        1        0
S      151.99697779     -94.30318844      11.35000000        2        0
Mo     148.26246361     -94.23024931      12.91355632        0        0
S      149.19828488     -92.64795194      14.47711265        1        0
S      149.19828488     -92.64795194      11.35000000        2        0
Mo     145.46377070     -92.57501281      12.91355632        0        0
S      146.39959196     -90.99271544      14.47711265        1        0
S      146.39959196     -90.99271544      11.35000000        2        0
Mo     142.66507778     -90.91977631      12.91355632        0        0
S      143.60089905     -89.33747894      14.47711265        1        0
S      143.60089905     -89.33747894      11.35000000        2        0
Mo     139.86638487     -89.26453981      12.91355632        0        0
S      140.80220614     -87.68224244      14.47711265        1        0
S      140.80220614     -87.68224244      11.35000000        2        0
Mo     137.06769196     -87.60930331      12.91355632        0        0
S      138.00351322     -86.02700594      14.47711265        1        0
S      138.00351322     -86.02700594      11.35000000        2        0
Mo     134.26899904     -85.95406681      12.91355632        0        0
S      135.20482031     -84.37176944      14.47711265        1        0
S      135.20482031     -84.37176944      11.35000000        2        0
Mo     131.47030613     -84.29883031      12.91355632        0        0
S      132.40612740     -82.71653294      14.47711265        1        0
S      132.40612740     -82.71653294      11.35000000        2        0
Mo     128.67161322     -82.64359381      12.91355632        0        0
S      129.60743448     -81.06129644      14.47711265        1        0
S      129.60743448     -81.06129644      11.35000000        2        0
Mo     125.87292030     -80.98835731      12.91355632        0        0
S      126.80874157     -79.40605994      14.47711265        1        0
S      126.80874157     -79.40605994      11.35000000        2        0
Mo     123.07422739     -79.33312081      12.91355632        0        0
S      124.01004866     -77.75082344      14.47711265        1        0
S      124.01004866     -77.75082344      11.35000000        2        0
Mo     120.27553448     -77.67788431      12.91355632        0        0
S      121.21135574     -76.09558694      14.47711265        1        0
S      121.21135574     -76.09558694      11.35000000        2        0
Mo     117.47684156     -76.02264781      12.91355632        0        0
S      118.41266283     -74.44035044      14.47711265        1        0
S      118.41266283     -74.44035044      11.35000000        2        0
Mo     114.67814865     -74.36741131      12.91355632        0        0
S      115.61396992     -72.78511394      14.47711265        1        0
S      115.61396992     -72.78511394      11.35000000        2        0
Mo     111.87945574     -72.71217481      12.91355632        0        0
S      112.81527700     -71.12987744      14.47711265        1        0
S      112.81527700     -71.12987744      11.35000000        2        0
Mo     109.08076282     -71.05693831      12.91355632        0        0
S      110.01658409     -69.47464094      14.47711265        1        0
S      110.01658409     -69.47464094      11.35000000        2        0
Mo     106.28206991     -69.40170181      12.91355632        0        0
S      107.21789118     -67.81940444      14.47711265        1        0
S      107.21789118     -67.81940444      11.35000000        2        0
Mo     103.48337700     -67.74646531      12.91355632        0        0
S      104.41919826     -66.16416794      14.47711265        1        0
S      104.41919826     -66.16416794      11.35000000        2        0
Mo     100.68468408     -66.09122881      12.91355632        0        0
S      101.62050535     -64.50893144      14.47711265        1        0
S      101.62050535     -64.50893144      11.35000000        2        0
Mo      97.88599117     -64.43599231      12.91355632        0        0
S       98.82181243     -62.85369494      14.47711265        1        0
S       98.82181243     -62.85369494      11.35000000        2        0
Mo      95.08729825     -62.78075581      12.91355632        0        0
S       96.02311952     -61.19845844      14.47711265        1        0
S       96.02311952     -61.19845844      11.35000000        2        0
Mo      92.28860534     -61.12551931      12.91355632        0        0
S       93.22442661     -59.54322194      14.47711265        1        0
S       93.22442661     -59.54322194      11.35000000        2        0
Mo      89.48991243     -59.47028281      12.91355632        0        0
S       90.42573369     -57.88798544      14.47711265        1        0
S       90.42573369     -57.88798544      11.35000000        2        0
Mo      86.69121951     -57.81504632      12.91355632        0        0
S       87.62704078     -56.23274894      14.47711265        1        0
S       87.62704078     -56.23274894      11.35000000        2        0
Mo      83.89252660     -56.15980982      12.91355632        0        0
S       84.82834787     -54.57751244      14.47711265        1        0
S       84.82834787     -54.57751244      11.35000000        2        0
Mo      81.09383369     -54.50457332      12.91355632        0        0
S       82.02965495     -52.92227594      14.47711265        1        0
S       82.02965495     -52.92227594      11.35000000        2        0
Mo      78.29514077     -52.84933682      12.91355632        0        0
S       79.23096204     -51.26703944      14.47711265        1        0
S       79.23096204     -51.26703944      11.35000000        2        0
Mo      75.49644786     -51.19410032      12.91355632        0        0
S       76.43226913     -49.61180294      14.47711265        1        0
S       76.43226913     -49.61180294      11.35000000        2        0
Mo      72.69775495     -49.53886382      12.91355632        0        0
S       73.63357621     -47.95656644      14.47711265        1        0
S       73.63357621     -47.95656644      11.35000000        2        0
Mo      69.89906203     -47.88362732      12.91355632        0        0
S       70.83488330     -46.30132994      14.47711265        1        0
S       70.83488330     -46.30132994      11.35000000        2        0
Mo      67.10036912     -46.22839082      12.91355632        0        0
S       68.03619039     -44.64609344      14.47711265        1        0
S       68.03619039     -44.64609344      11.35000000        2        0
Mo      64.30167621     -44.57315432      12.91355632        0        0
S       65.23749747     -42.99085694      14.47711265        1        0
S       65.23749747     -42.99085694      11.35000000        2        0
Mo      61.50298329     -42.91791782      12.91355632        0        0
S       62.43880456     -41.33562044      14.47711265        1        0
S       62.43880456     -41.33562044      11.35000000        2        0
Mo      58.70429038     -41.26268132      12.91355632        0        0
S       59.64011165     -39.68038394      14.47711265        1        0
S       59.64011165     -39.68038394      11.35000000        2        0
Mo      55.90559747     -39.60744482      12.91355632        0        0
S       56.84141873     -38.02514744      14.47711265        1        0
S       56.84141873     -38.02514744      11.35000000        2        0
Mo      53.10690455     -37.95220832      12.91355632        0        0
S       54.04272582     -36.36991095      14.47711265        1        0
S       54.04272582     -36.36991095      11.35000000        2        0
Mo      50.30821164     -36.29697182      12.91355632        0        0
S       51.24403291     -34.71467445      14.47711265        1        0
S       51.24403291     -34.71467445      11.35000000        2        0
Mo      47.50951873     -34.64173532      12.91355632        0        0
S       48.44533999     -33.05943795      14.47711265        1        0
S       48.44533999     -33.05943795      11.35000000        2        0
Mo      44.71082581     -32.98649882      12.91355632        0        0
S       45.64664708     -31.40420145      14.47711265        1        0
S       45.64664708     -31.40420145      11.35000000        2        0
Mo      41.91213290     -31.33126232      12.91355632        0        0
S       42.84795417     -29.74896495      14.47711265        1        0
S       42.84795417     -29.74896495      11.35000000        2        0
Mo      39.11343999     -29.67602582      12.91355632        0        0
S       40.04926125     -28.09372845      14.47711265        1        0
S       40.04926125     -28.09372845      11.35000000        2        0
Mo      36.31474707     -28.02078932      12.91355632        0        0
S       37.25056834     -26.43849195      14.47711265        1        0
S       37.25056834     -26.43849195      11.35000000        2        0
Mo      33.51605416     -26.36555282      12.91355632        0        0
S       34.45187543     -24.78325545      14.47711265        1        0
S       34.45187543     -24.78325545      11.35000000        2        0
Mo      30.71736125     -24.71031632      12.91355632        0        0
S       31.65318251     -23.12801895      14.47711265        1        0
S       31.65318251     -23.12801895      11.35000000        2        0
Mo      27.91866833     -23.05507982      12.91355632        0        0
S       28.85448960     -21.47278245      14.47711265        1        0
S       28.85448960     -21.47278245      11.35000000        2        0
Mo      25.11997542     -21.39984332      12.91355632        0        0
S       26.05579668     -19.81754595      14.47711265        1        0
S       26.05579668     -19.81754595      11.35000000        2        0
Mo      22.32128250     -19.74460682      12.91355632        0        0
S       23.25710377     -18.16230945      14.47711265        1        0
S       23.25710377     -18.16230945      11.35000000        2        0
Mo      19.52258959     -18.08937032      12.91355632        0        0
S       20.45841086     -16.50707295      14.47711265        1        0
S       20.45841086     -16.50707295      11.35000000        2        0
Mo      16.72389668     -16.43413382      12.91355632        0        0
S       17.65971794     -14.85183645      14.47711265        1        0
S       17.65971794     -14.85183645      11.35000000        2        0
Mo      13.92520376     -14.77889732      12.91355632        0        0
S       14.86102503     -13.19659995      14.47711265        1        0
S       14.86102503     -13.19659995      11.35000000        2        0
Mo      11.12651085     -13.12366082      12.91355632        0        0
S       12.06233212     -11.54136345      14.47711265        1        0
S       12.06233212     -11.54136345      11.35000000        2        0
Mo       8.32781794     -11.46842432      12.91355632        0        0
S        9.26363920      -9.88612695      14.47711265        1        0
S        9.26363920      -9.88612695      11.35000000        2        0
Mo     160.41288650      -9.81318782      12.91355632        0        0
S        6.46494629      -8.23089045      14.47711265        1        0
S        6.46494629      -8.23089045      11.35000000        2        0
Mo     157.61419359      -8.15795132      12.91355632        0        0
S      158.55001486      -6.57565395      14.47711265        1        0
S      158.55001486      -6.57565395      11.35000000        2        0
Mo     146.41942194      -1.53700532      12.91355632        0        0
S      224.79712394    -134.08798002      14.47711265        1        0
S      224.79712394    -134.08798002      11.35000000        2        0
Mo     221.06260976    -134.01504090      12.91355632        0        0
S      221.99843103    -132.43274352      14.47711265        1        0
S      221.99843103    -132.43274352      11.35000000        2        0
Mo     218.26391685    -132.35980440      12.91355632        0        0
S      219.19973811    -130.77750702      14.47711265        1        0
S      219.19973811    -130.77750702      11.35000000        2        0
Mo     215.46522393    -130.70456790      12.91355632        0        0
S      216.40104520    -129.12227052      14.47711265        1        0
S      216.40104520    -129.12227052      11.35000000        2        0
Mo     212.66653102    -129.04933140      12.91355632        0        0
S      213.60235229    -127.46703402      14.47711265        1        0
S      213.60235229    -127.46703402      11.35000000        2        0
Mo     209.86783811    -127.39409490      12.91355632        0        0
S      210.80365937    -125.81179752      14.47711265        1        0
S      210.80365937    -125.81179752      11.35000000        2        0
Mo     207.06914519    -125.73885840      12.91355632        0        0
S      208.00496646    -124.15656102      14.47711265        1        0
S      208.00496646    -124.15656102      11.35000000        2        0
Mo     204.27045228    -124.08362190      12.91355632        0        0
S      205.20627355    -122.50132452      14.47711265        1        0
S      205.20627355    -122.50132452      11.35000000        2        0
Mo     201.47175937    -122.42838540      12.91355632        0        0
S      202.40758063    -120.84608803      14.47711265        1        0
S      202.40758063    -120.84608803      11.35000000        2        0
Mo     198.67306645    -120.77314890      12.91355632        0        0
S      199.60888772    -119.19085153      14.47711265        1        0
S      199.60888772    -119.19085153      11.35000000        2        0
Mo     195.87437354    -119.11791240      12.91355632        0        0
S      196.81019481    -117.53561503      14.47711265        1        0
S      196.81019481    -117.53561503      11.35000000        2        0
Mo     193.07568063    -117.46267590      12.91355632        0        0
S      194.01150189    -115.88037853      14.47711265        1        0
S      194.01150189    -115.88037853      11.35000000        2        0
Mo     190.27698771    -115.80743940      12.91355632        0        0
S      191.21280898    -114.22514203      14.47711265        1        0
S      191.21280898    -114.22514203      11.35000000        2        0
Mo     187.47829480    -114.15220290      12.91355632        0        0
S      188.41411607    -112.56990553      14.47711265        1        0
S      188.41411607    -112.56990553      11.35000000        2        0
Mo     184.67960189    -112.49696640      12.91355632        0        0
S      185.61542315    -110.91466903      14.47711265        1        0
S      185.61542315    -110.91466903      11.35000000        2        0
Mo     181.88090897    -110.84172990      12.91355632        0        0
S      182.81673024    -109.25943253      14.47711265        1        0
S      182.81673024    -109.25943253      11.35000000        2        0
Mo     179.08221606    -109.18649340      12.91355632        0        0
S      180.01803733    -107.60419603      14.47711265        1        0
S      180.01803733    -107.60419603      11.35000000        2        0
Mo     176.28352315    -107.53125690      12.91355632        0        0
S      177.21934441    -105.94895953      14.47711265        1        0
S      177.21934441    -105.94895953      11.35000000        2        0
Mo     173.48483023    -105.87602040      12.91355632        0        0
S      174.42065150    -104.29372303      14.47711265        1        0
S      174.42065150    -104.29372303      11.35000000        2        0
Mo     170.68613732    -104.22078390      12.91355632        0        0
S      171.62195859    -102.63848653      14.47711265        1        0
S      171.62195859    -102.63848653      11.35000000        2        0
Mo     167.88744441    -102.56554740      12.91355632        0        0
S      168.82326567    -100.98325003      14.47711265        1        0
S      168.82326567    -100.98325003      11.35000000        2        0
Mo     165.08875149    -100.91031090      12.91355632        0        0
S      166.02457276     -99.32801353      14.47711265        1        0
S      166.02457276     -99.32801353      11.35000000        2        0
Mo     162.29005858     -99.25507440      12.91355632        0        0
S      163.22587985     -97.67277703      14.47711265        1        0
S      163.22587985     -97.67277703      11.35000000        2        0
Mo     159.49136567     -97.59983790      12.91355632        0        0
S      160.42718693     -96.01754053      14.47711265        1        0
S      160.42718693     -96.01754053      11.35000000        2        0
Mo     156.69267275     -95.94460140      12.91355632        0        0
S      157.62849402     -94.36230403      14.47711265        1        0
S      157.62849402     -94.36230403      11.35000000        2        0
Mo     153.89397984     -94.28936490      12.91355632        0        0
S      154.82980111     -92.70706753      14.47711265        1        0
S      154.82980111     -92.70706753      11.35000000        2        0
Mo     151.09528693     -92.63412840      12.91355632        0        0
S      152.03110819     -91.05183103      14.47711265        1        0
S      152.03110819     -91.05183103      11.35000000        2        0
Mo     148.29659401     -90.97889190      12.91355632        0        0
S      149.23241528     -89.39659453      14.47711265        1        0
S      149.23241528     -89.39659453      11.35000000        2        0
Mo     145.49790110     -89.32365540      12.91355632        0        0
S      146.43372236     -87.74135803      14.47711265        1        0
S      146.43372236     -87.74135803      11.35000000        2        0
Mo     142.69920818     -87.66841890      12.91355632        0        0
S      143.63502945     -86.08612153      14.47711265        1        0
S      143.63502945     -86.08612153      11.35000000        2        0
Mo     139.90051527     -86.01318240      12.91355632        0        0
S      140.83633654     -84.43088503      14.47711265        1        0
S      140.83633654     -84.43088503      11.35000000        2        0
Mo     137.10182236     -84.35794590      12.91355632        0        0
S      138.03764362     -82.77564853      14.47711265        1        0
S      138.03764362     -82.77564853      11.35000000        2        0
Mo     134.30312944     -82.70270940      12.91355632        0        0
S      135.23895071     -81.12041203      14.47711265        1        0
S      135.23895071     -81.12041203      11.35000000        2        0
Mo     131.50443653     -81.04747290      12.91355632        0        0
S      132.44025780     -79.46517553      14.47711265        1        0
S      132.44025780     -79.46517553      11.35000000        2        0
Mo     128.70574362     -79.39223640      12.91355632        0        0
S      129.64156488     -77.80993903      14.47711265        1        0
S      129.64156488     -77.80993903      11.35000000        2        0
Mo     125.90705070     -77.73699990      12.91355632        0        0
S      126.84287197     -76.15470253      14.47711265        1        0
S      126.84287197     -76.15470253      11.35000000        2        0
Mo     123.10835779     -76.08176340      12.91355632        0        0
S      124.04417906     -74.49946603      14.47711265        1        0
S      124.04417906     -74.49946603      11.35000000        2        0
Mo     120.30966488     -74.42652690      12.91355632        0        0
S      121.24548614     -72.84422953      14.47711265        1        0
S      121.24548614     -72.84422953      11.35000000        2        0
Mo     117.51097196     -72.77129040      12.91355632        0        0
S      118.44679323     -71.18899303      14.47711265        1        0
S      118.44679323     -71.18899303      11.35000000        2        0
Mo     114.71227905     -71.11605390      12.91355632        0        0
S      115.64810032     -69.53375653      14.47711265        1        0
S      115.64810032     -69.53375653      11.35000000        2        0
Mo     111.91358614     -69.46081740      12.91355632        0        0
S      112.84940740     -67.87852003      14.47711265        1        0
S      112.84940740     -67.87852003      11.35000000        2        0
Mo     109.11489322     -67.80558090      12.91355632        0        0
S      110.05071449     -66.22328353      14.47711265        1        0
S      110.05071449     -66.22328353      11.35000000        2        0
Mo     106.31620031     -66.15034440      12.91355632        0        0
S      107.25202158     -64.56804703      14.47711265        1        0
S      107.25202158     -64.56804703      11.35000000        2        0
Mo     103.51750740     -64.49510790      12.91355632        0        0
S      104.45332866     -62.91281053      14.47711265        1        0
S      104.45332866     -62.91281053      11.35000000        2        0
Mo     100.71881448     -62.83987140      12.91355632        0        0
S      101.65463575     -61.25757403      14.47711265        1        0
S      101.65463575     -61.25757403      11.35000000        2        0
Mo      97.92012157     -61.18463490      12.91355632        0        0
S       98.85594284     -59.60233753      14.47711265        1        0
S       98.85594284     -59.60233753      11.35000000        2        0
Mo      95.12142866     -59.52939840      12.91355632        0        0
S       96.05724992     -57.94710103      14.47711265        1        0
S       96.05724992     -57.94710103      11.35000000        2        0
Mo      92.32273574     -57.87416190      12.91355632        0        0
S       93.25855701     -56.29186453      14.47711265        1        0
S       93.25855701     -56.29186453      11.35000000        2        0
Mo      89.52404283     -56.21892540      12.91355632        0        0
S       90.45986410     -54.63662803      14.47711265        1        0
S       90.45986410     -54.63662803      11.35000000        2        0
Mo      86.72534992     -54.56368890      12.91355632        0        0
S       87.66117118     -52.98139153      14.47711265        1        0
S       87.66117118     -52.98139153      11.35000000        2        0
Mo      83.92665700     -52.90845240      12.91355632        0        0
S       84.86247827     -51.32615503      14.47711265        1        0
S       84.86247827     -51.32615503      11.35000000        2        0
Mo      81.12796409     -51.25321591      12.91355632        0        0
S       82.06378536     -49.67091853      14.47711265        1        0
S       82.06378536     -49.67091853      11.35000000        2        0
Mo      78.32927118     -49.59797941      12.91355632        0        0
S       79.26509244     -48.01568203      14.47711265        1        0
S       79.26509244     -48.01568203      11.35000000        2        0
Mo      75.53057826     -47.94274291      12.91355632        0        0
S       76.46639953     -46.36044553      14.47711265        1        0
S       76.46639953     -46.36044553      11.35000000        2        0
Mo      72.73188535     -46.28750641      12.91355632        0        0
S       73.66770661     -44.70520903      14.47711265        1        0
S       73.66770661     -44.70520903      11.35000000        2        0
Mo      69.93319244     -44.63226991      12.91355632        0        0
S       70.86901370     -43.04997253      14.47711265        1        0
S       70.86901370     -43.04997253      11.35000000        2        0
Mo      67.13449952     -42.97703341      12.91355632        0        0
S       68.07032079     -41.39473603      14.47711265        1        0
S       68.07032079     -41.39473603      11.35000000        2        0
Mo      64.33580661     -41.32179691      12.91355632        0        0
S       65.27162787     -39.73949953      14.47711265        1        0
S       65.27162787     -39.73949953      11.35000000        2        0
Mo      61.53711369     -39.66656041      12.91355632        0        0
S       62.47293496     -38.08426303      14.47711265        1        0
S       62.47293496     -38.08426303      11.35000000        2        0
Mo      58.73842078     -38.01132391      12.91355632        0        0
S       59.67424205     -36.42902653      14.47711265        1        0
S       59.67424205     -36.42902653      11.35000000        2        0
Mo      55.93972787     -36.35608741      12.91355632        0        0
S       56.87554913     -34.77379003      14.47711265        1        0
S       56.87554913     -34.77379003      11.35000000        2        0
Mo      53.14103495     -34.70085091      12.91355632        0        0
S       54.07685622     -33.11855353      14.47711265        1        0
S       54.07685622     -33.11855353      11.35000000        2        0
Mo      50.34234204     -33.04561441      12.91355632        0        0
S       51.27816331     -31.46331703      14.47711265        1        0
S       51.27816331     -31.46331703      11.35000000        2        0
Mo      47.54364913     -31.39037791      12.91355632        0        0
S       48.47947039     -29.80808054      14.47711265        1        0
S       48.47947039     -29.80808054      11.35000000        2        0
Mo      44.74495621     -29.73514141      12.91355632        0        0
S       45.68077748     -28.15284404      14.47711265        1        0
S       45.68077748     -28.15284404      11.35000000        2        0
Mo      41.94626330     -28.07990491      12.91355632        0        0
S       42.88208457     -26.49760754      14.47711265        1        0
S       42.88208457     -26.49760754      11.35000000        2        0
Mo      39.14757039     -26.42466841      12.91355632        0        0
S       40.08339165     -24.84237104      14.47711265        1        0
S       40.08339165     -24.84237104      11.35000000        2        0
Mo      36.34887747     -24.76943191      12.91355632        0        0
S       37.28469874     -23.18713454      14.47711265        1        0
S       37.28469874     -23.18713454      11.35000000        2        0
Mo      33.55018456     -23.11419541      12.91355632        0        0
S       34.48600583     -21.53189804      14.47711265        1        0
S       34.48600583     -21.53189804      11.35000000        2        0
Mo      30.75149165     -21.45895891      12.91355632        0        0
S       31.68731291     -19.87666154      14.47711265        1        0
S       31.68731291     -19.87666154      11.35000000        2        0
Mo      27.95279873     -19.80372241      12.91355632        0        0
S       28.88862000     -18.22142504      14.47711265        1        0
S       28.88862000     -18.22142504      11.35000000        2        0
Mo      25.15410582     -18.14848591      12.91355632        0        0
S       26.08992709     -16.56618854      14.47711265        1        0
S       26.08992709     -16.56618854      11.35000000        2        0
Mo      22.35541291     -16.49324941      12.91355632        0        0
S       23.29123417     -14.91095204      14.47711265        1        0
S       23.29123417     -14.91095204      11.35000000        2        0
Mo      19.55671999     -14.83801291      12.91355632        0        0
S       20.49254126     -13.25571554      14.47711265        1        0
S       20.49254126     -13.25571554      11.35000000        2        0
Mo      16.75802708     -13.18277641      12.91355632        0        0
S       17.69384835     -11.60047904      14.47711265        1        0
S       17.69384835     -11.60047904      11.35000000        2        0
Mo      13.95933417     -11.52753991      12.91355632        0        0
S       14.89515543      -9.94524254      14.47711265        1        0
S       14.89515543      -9.94524254      11.35000000        2        0
Mo      11.16064125      -9.87230341      12.91355632        0        0
S       12.09646252      -8.29000604      14.47711265        1        0
S       12.09646252      -8.29000604      11.35000000        2        0
Mo       8.36194834      -8.21706691      12.91355632        0        0
S        9.29776961      -6.63476954      14.47711265        1        0
S        9.29776961      -6.63476954      11.35000000        2        0
Mo       5.56325543      -6.56183041      12.91355632        0        0
S        6.49907669      -4.97953304      14.47711265        1        0
S        6.49907669      -4.97953304      11.35000000        2        0
Mo     157.64832399      -4.90659391      12.91355632        0        0
S        3.70038378      -3.32429654      14.47711265        1        0
S        3.70038378      -3.32429654      11.35000000        2        0
Mo     154.84963108      -3.25135741      12.91355632        0        0
S      155.78545234      -1.66906004      14.47711265        1        0
S      155.78545234      -1.66906004      11.35000000        2        0
Mo     152.05093816      -1.59612091      12.91355632        0        0
S      152.98675943      -0.01382354      14.47711265        1        0
S      152.98675943      -0.01382354      11.35000000        2        0
Mo     226.69412599    -134.07415649      12.91355632        0        0
S      227.62994726    -132.49185911      14.47711265        1        0
S      227.62994726    -132.49185911      11.35000000        2        0
Mo     223.89543308    -132.41891999      12.91355632        0        0
S      224.83125434    -130.83662261      14.47711265        1        0
S      224.83125434    -130.83662261      11.35000000        2        0
Mo     221.09674016    -130.76368349      12.91355632        0        0
S      222.03256143    -129.18138611      14.47711265        1        0
S      222.03256143    -129.18138611      11.35000000        2        0
Mo     218.29804725    -129.10844699      12.91355632        0        0
S      219.23386852    -127.52614961      14.47711265        1        0
S      219.23386852    -127.52614961      11.35000000        2        0
Mo     215.49935434    -127.45321049      12.91355632        0        0
S      216.43517560    -125.87091311      14.47711265        1        0
S      216.43517560    -125.87091311      11.35000000        2        0
Mo     212.70066142    -125.79797399      12.91355632        0        0
S      213.63648269    -124.21567661      14.47711265        1        0
S      213.63648269    -124.21567661      11.35000000        2        0
Mo     209.90196851    -124.14273749      12.91355632        0        0
S      210.83778978    -122.56044011      14.47711265        1        0
S      210.83778978    -122.56044011      11.35000000        2        0
Mo     207.10327560    -122.48750099      12.91355632        0        0
S      208.03909686    -120.90520361      14.47711265        1        0
S      208.03909686    -120.90520361      11.35000000        2        0
Mo     204.30458268    -120.83226449      12.91355632        0        0
S      205.24040395    -119.24996711      14.47711265        1        0
S      205.24040395    -119.24996711      11.35000000        2        0
Mo     201.50588977    -119.17702799      12.91355632        0        0
S      202.44171104    -117.59473061      14.47711265        1        0
S      202.44171104    -117.59473061      11.35000000        2        0
Mo     198.70719686    -117.52179149      12.91355632        0        0
S      199.64301812    -115.93949411      14.47711265        1        0
S      199.64301812    -115.93949411      11.35000000        2        0
Mo     195.90850394    -115.86655499      12.91355632        0        0
S      196.84432521    -114.28425762      14.47711265        1        0
S      196.84432521    -114.28425762      11.35000000        2        0
Mo     193.10981103    -114.21131849      12.91355632        0        0
S      194.04563229    -112.62902112      14.47711265        1        0
S      194.04563229    -112.62902112      11.35000000        2        0
Mo     190.31111812    -112.55608199      12.91355632        0        0
S      191.24693938    -110.97378462      14.47711265        1        0
S      191.24693938    -110.97378462      11.35000000        2        0
Mo     187.51242520    -110.90084549      12.91355632        0        0
S      188.44824647    -109.31854812      14.47711265        1        0
S      188.44824647    -109.31854812      11.35000000        2        0
Mo     184.71373229    -109.24560899      12.91355632        0        0
S      185.64955355    -107.66331162      14.47711265        1        0
S      185.64955355    -107.66331162      11.35000000        2        0
Mo     181.91503937    -107.59037249      12.91355632        0        0
S      182.85086064    -106.00807512      14.47711265        1        0
S      182.85086064    -106.00807512      11.35000000        2        0
Mo     179.11634646    -105.93513599      12.91355632        0        0
S      180.05216773    -104.35283862      14.47711265        1        0
S      180.05216773    -104.35283862      11.35000000        2        0
Mo     176.31765355    -104.27989949      12.91355632        0        0
S      177.25347481    -102.69760212      14.47711265        1        0
S      177.25347481    -102.69760212      11.35000000        2        0
Mo     173.51896063    -102.62466299      12.91355632        0        0
S      174.45478190    -101.04236562      14.47711265        1        0
S      174.45478190    -101.04236562      11.35000000        2        0
Mo     170.72026772    -100.96942649      12.91355632        0        0
S      171.65608899     -99.38712912      14.47711265        1        0
S      171.65608899     -99.38712912      11.35000000        2        0
Mo     167.92157481     -99.31418999      12.91355632        0        0
S      168.85739607     -97.73189262      14.47711265        1        0
S      168.85739607     -97.73189262      11.35000000        2        0
Mo     165.12288189     -97.65895349      12.91355632        0        0
S      166.05870316     -96.07665612      14.47711265        1        0
S      166.05870316     -96.07665612      11.35000000        2        0
Mo     162.32418898     -96.00371699      12.91355632        0        0
S      163.26001025     -94.42141962      14.47711265        1        0
S      163.26001025     -94.42141962      11.35000000        2        0
Mo     159.52549607     -94.34848049      12.91355632        0        0
S      160.46131733     -92.76618312      14.47711265        1        0
S      160.46131733     -92.76618312      11.35000000        2        0
Mo     156.72680315     -92.69324399      12.91355632        0        0
S      157.66262442     -91.11094662      14.47711265        1        0
S      157.66262442     -91.11094662      11.35000000        2        0
Mo     153.92811024     -91.03800749      12.91355632        0        0
S      154.86393151     -89.45571012      14.47711265        1        0
S      154.86393151     -89.45571012      11.35000000        2        0
Mo     151.12941733     -89.38277099      12.91355632        0        0
S      152.06523859     -87.80047362      14.47711265        1        0
S      152.06523859     -87.80047362      11.35000000        2        0
Mo     148.33072441     -87.72753449      12.91355632        0        0
S      149.26654568     -86.14523712      14.47711265        1        0
S      149.26654568     -86.14523712      11.35000000        2        0
Mo     145.53203150     -86.07229799      12.91355632        0        0
S      146.46785277     -84.49000062      14.47711265        1        0
S      146.46785277     -84.49000062      11.35000000        2        0
Mo     142.73333859     -84.41706149      12.91355632        0        0
S      143.66915985     -82.83476412      14.47711265        1        0
S      143.66915985     -82.83476412      11.35000000        2        0
Mo     139.93464567     -82.76182499      12.91355632        0        0
S      140.87046694     -81.17952762      14.47711265        1        0
S      140.87046694     -81.17952762      11.35000000        2        0
Mo     137.13595276     -81.10658849      12.91355632        0        0
S      138.07177403     -79.52429112      14.47711265        1        0
S      138.07177403     -79.52429112      11.35000000        2        0
Mo     134.33725985     -79.45135199      12.91355632        0        0
S      135.27308111     -77.86905462      14.47711265        1        0
S      135.27308111     -77.86905462      11.35000000        2        0
Mo     131.53856693     -77.79611549      12.91355632        0        0
S      132.47438820     -76.21381812      14.47711265        1        0
S      132.47438820     -76.21381812      11.35000000        2        0
Mo     128.73987402     -76.14087899      12.91355632        0        0
S      129.67569529     -74.55858162      14.47711265        1        0
S      129.67569529     -74.55858162      11.35000000        2        0
Mo     125.94118111     -74.48564249      12.91355632        0        0
S      126.87700237     -72.90334512      14.47711265        1        0
S      126.87700237     -72.90334512      11.35000000        2        0
Mo     123.14248819     -72.83040599      12.91355632        0        0
S      124.07830946     -71.24810862      14.47711265        1        0
S      124.07830946     -71.24810862      11.35000000        2        0
Mo     120.34379528     -71.17516949      12.91355632        0        0
S      121.27961655     -69.59287212      14.47711265        1        0
S      121.27961655     -69.59287212      11.35000000        2        0
Mo     117.54510237     -69.51993299      12.91355632        0        0
S      118.48092363     -67.93763562      14.47711265        1        0
S      118.48092363     -67.93763562      11.35000000        2        0
Mo     114.74640945     -67.86469649      12.91355632        0        0
S      115.68223072     -66.28239912      14.47711265        1        0
S      115.68223072     -66.28239912      11.35000000        2        0
Mo     111.94771654     -66.20945999      12.91355632        0        0
S      112.88353780     -64.62716262      14.47711265        1        0
S      112.88353780     -64.62716262      11.35000000        2        0
Mo     109.14902362     -64.55422349      12.91355632        0        0
S      110.08484489     -62.97192612      14.47711265        1        0
S      110.08484489     -62.97192612      11.35000000        2        0
Mo     106.35033071     -62.89898699      12.91355632        0        0
S      107.28615198     -61.31668962      14.47711265        1        0
S      107.28615198     -61.31668962      11.35000000        2        0
Mo     103.55163780     -61.24375049      12.91355632        0        0
S      104.48745906     -59.66145312      14.47711265        1        0
S      104.48745906     -59.66145312      11.35000000        2        0
Mo     100.75294488     -59.58851399      12.91355632        0        0
S      101.68876615     -58.00621662      14.47711265        1        0
S      101.68876615     -58.00621662      11.35000000        2        0
Mo      97.95425197     -57.93327749      12.91355632        0        0
S       98.89007324     -56.35098012      14.47711265        1        0
S       98.89007324     -56.35098012      11.35000000        2        0
Mo      95.15555906     -56.27804099      12.91355632        0        0
S       96.09138032     -54.69574362      14.47711265        1        0
S       96.09138032     -54.69574362      11.35000000        2        0
Mo      92.35686614     -54.62280449      12.91355632        0        0
S       93.29268741     -53.04050712      14.47711265        1        0
S       93.29268741     -53.04050712      11.35000000        2        0
Mo      89.55817323     -52.96756799      12.91355632        0        0
S       90.49399450     -51.38527062      14.47711265        1        0
S       90.49399450     -51.38527062      11.35000000        2        0
Mo      86.75948032     -51.31233149      12.91355632        0        0
S       87.69530158     -49.73003412      14.47711265        1        0
S       87.69530158     -49.73003412      11.35000000        2        0
Mo      83.96078740     -49.65709499      12.91355632        0        0
S       84.89660867     -48.07479762      14.47711265        1        0
S       84.89660867     -48.07479762      11.35000000        2        0
Mo      81.16209449     -48.00185849      12.91355632        0        0
S       82.09791576     -46.41956112      14.47711265        1        0
S       82.09791576     -46.41956112      11.35000000        2        0
Mo      78.36340158     -46.34662199      12.91355632        0        0
S       79.29922284     -44.76432462      14.47711265        1        0
S       79.29922284     -44.76432462      11.35000000        2        0
Mo      75.56470866     -44.69138550      12.91355632        0        0
S       76.50052993     -43.10908812      14.47711265        1        0
S       76.50052993     -43.10908812      11.35000000        2        0
Mo      72.76601575     -43.03614900      12.91355632        0        0
S       73.70183702     -41.45385162      14.47711265        1        0
S       73.70183702     -41.45385162      11.35000000        2        0
Mo      69.96732284     -41.38091250      12.91355632        0        0
S       70.90314410     -39.79861512      14.47711265        1        0
S       70.90314410     -39.79861512      11.35000000        2        0
Mo      67.16862992     -39.72567600      12.91355632        0        0
S       68.10445119     -38.14337862      14.47711265        1        0
S       68.10445119     -38.14337862      11.35000000        2        0
Mo      64.36993701     -38.07043950      12.91355632        0        0
S       65.30575828     -36.48814212      14.47711265        1        0
S       65.30575828     -36.48814212      11.35000000        2        0
Mo      61.57124410     -36.41520300      12.91355632        0        0
S       62.50706536     -34.83290562      14.47711265        1        0
S       62.50706536     -34.83290562      11.35000000        2        0
Mo      58.77255118     -34.75996650      12.91355632        0        0
S       59.70837245     -33.17766912      14.47711265        1        0
S       59.70837245     -33.17766912      11.35000000        2        0
Mo      55.97385827     -33.10473000      12.91355632        0        0
S       56.90967954     -31.52243262      14.47711265        1        0
S       56.90967954     -31.52243262      11.35000000        2        0
Mo      53.17516536     -31.44949350      12.91355632        0        0
S       54.11098662     -29.86719612      14.47711265        1        0
S       54.11098662     -29.86719612      11.35000000        2        0
Mo      50.37647244     -29.79425700      12.91355632        0        0
S       51.31229371     -28.21195962      14.47711265        1        0
S       51.31229371     -28.21195962      11.35000000        2        0
Mo      47.57777953     -28.13902050      12.91355632        0        0
S       48.51360080     -26.55672312      14.47711265        1        0
S       48.51360080     -26.55672312      11.35000000        2        0
Mo      44.77908662     -26.48378400      12.91355632        0        0
S       45.71490788     -24.90148662      14.47711265        1        0
S       45.71490788     -24.90148662      11.35000000        2        0
Mo      41.98039370     -24.82854750      12.91355632        0        0
S       42.91621497     -23.24625013      14.47711265        1        0
S       42.91621497     -23.24625013      11.35000000        2        0
Mo      39.18170079     -23.17331100      12.91355632        0        0
S       40.11752205     -21.59101363      14.47711265        1        0
S       40.11752205     -21.59101363      11.35000000        2        0
Mo      36.38300787     -21.51807450      12.91355632        0        0
S       37.31882914     -19.93577713      14.47711265        1        0
S       37.31882914     -19.93577713      11.35000000        2        0
Mo      33.58431496     -19.86283800      12.91355632        0        0
S       34.52013623     -18.28054063      14.47711265        1        0
S       34.52013623     -18.28054063      11.35000000        2        0
Mo      30.78562205     -18.20760150      12.91355632        0        0
S       31.72144331     -16.62530413      14.47711265        1        0
S       31.72144331     -16.62530413      11.35000000        2        0
Mo      27.98692913     -16.55236500      12.91355632        0        0
S       28.92275040     -14.97006763      14.47711265        1        0
S       28.92275040     -14.97006763      11.35000000        2        0
Mo      25.18823622     -14.89712850      12.91355632        0        0
S       26.12405749     -13.31483113      14.47711265        1        0
S       26.12405749     -13.31483113      11.35000000        2        0
Mo      22.38954331     -13.24189200      12.91355632        0        0
S       23.32536457     -11.65959463      14.47711265        1        0
S       23.32536457     -11.65959463      11.35000000        2        0
Mo      19.59085039     -11.58665550      12.91355632        0        0
S       20.52667166     -10.00435813      14.47711265        1        0
S       20.52667166     -10.00435813      11.35000000        2        0
Mo      16.79215748      -9.93141900      12.91355632        0        0
S       17.72797875      -8.34912163      14.47711265        1        0
S       17.72797875      -8.34912163      11.35000000        2        0
Mo      13.99346457      -8.27618250      12.91355632        0        0
S       14.92928583      -6.69388513      14.47711265        1        0
S       14.92928583      -6.69388513      11.35000000        2        0
Mo      11.19477165      -6.62094600      12.91355632        0        0
S       12.13059292      -5.03864863      14.47711265        1        0
S       12.13059292      -5.03864863      11.35000000        2        0
Mo       8.39607874      -4.96570950      12.91355632        0        0
S        9.33190001      -3.38341213      14.47711265        1        0
S        9.33190001      -3.38341213      11.35000000        2        0
Mo       5.59738583      -3.31047300      12.91355632        0        0
S        6.53320709      -1.72817563      14.47711265        1        0
S        6.53320709      -1.72817563      11.35000000        2        0
Mo       2.79869291      -1.65523650      12.91355632        0        0
S        3.73451418      -0.07293913      14.47711265        1        0
S        3.73451418      -0.07293913      11.35000000        2        0
Mo     223.92956348    -129.16756257      12.91355632        0        0
S      224.86538474    -127.58526520      14.47711265        1        0
S      224.86538474    -127.58526520      11.35000000        2        0
Mo     221.13087056    -127.51232608      12.91355632        0        0
S      222.06669183    -125.93002870      14.47711265        1        0
S      222.06669183    -125.93002870      11.35000000        2        0
Mo     218.33217765    -125.85708958      12.91355632        0        0
S      219.26799892    -124.27479220      14.47711265        1        0
S      219.26799892    -124.27479220      11.35000000        2        0
Mo     215.53348474    -124.20185308      12.91355632        0        0
S      216.46930600    -122.61955570      14.47711265        1        0
S      216.46930600    -122.61955570      11.35000000        2        0
Mo     212.73479182    -122.54661658      12.91355632        0        0
S      213.67061309    -120.96431920      14.47711265        1        0
S      213.67061309    -120.96431920      11.35000000        2        0
Mo     209.93609891    -120.89138008      12.91355632        0        0
S      210.87192018    -119.30908270      14.47711265        1        0
S      210.87192018    -119.30908270      11.35000000        2        0
Mo     207.13740600    -119.23614358      12.91355632        0        0
S      208.07322726    -117.65384620      14.47711265        1        0
S      208.07322726    -117.65384620      11.35000000        2        0
Mo     204.33871308    -117.58090708      12.91355632        0        0
S      205.27453435    -115.99860970      14.47711265        1        0
S      205.27453435    -115.99860970      11.35000000        2        0
Mo     201.54002017    -115.92567058      12.91355632        0        0
S      202.47584144    -114.34337320      14.47711265        1        0
S      202.47584144    -114.34337320      11.35000000        2        0
Mo     198.74132726    -114.27043408      12.91355632        0        0
S      199.67714852    -112.68813670      14.47711265        1        0
S      199.67714852    -112.68813670      11.35000000        2        0
Mo     195.94263434    -112.61519758      12.91355632        0        0
S      196.87845561    -111.03290020      14.47711265        1        0
S      196.87845561    -111.03290020      11.35000000        2        0
Mo     193.14394143    -110.95996108      12.91355632        0        0
S      194.07976270    -109.37766370      14.47711265        1        0
S      194.07976270    -109.37766370      11.35000000        2        0
Mo     190.34524852    -109.30472458      12.91355632        0        0
S      191.28106978    -107.72242721      14.47711265        1        0
S      191.28106978    -107.72242721      11.35000000        2        0
Mo     187.54655560    -107.64948808      12.91355632        0        0
S      188.48237687    -106.06719071      14.47711265        1        0
S      188.48237687    -106.06719071      11.35000000        2        0
Mo     184.74786269    -105.99425158      12.91355632        0        0
S      185.68368396    -104.41195421      14.47711265        1        0
S      185.68368396    -104.41195421      11.35000000        2        0
Mo     181.94916978    -104.33901508      12.91355632        0        0
S      182.88499104    -102.75671771      14.47711265        1        0
S      182.88499104    -102.75671771      11.35000000        2        0
Mo     179.15047686    -102.68377858      12.91355632        0        0
S      180.08629813    -101.10148121      14.47711265        1        0
S      180.08629813    -101.10148121      11.35000000        2        0
Mo     176.35178395    -101.02854208      12.91355632        0        0
S      177.28760522     -99.44624471      14.47711265        1        0
S      177.28760522     -99.44624471      11.35000000        2        0
Mo     173.55309104     -99.37330558      12.91355632        0        0
S      174.48891230     -97.79100821      14.47711265        1        0
S      174.48891230     -97.79100821      11.35000000        2        0
Mo     170.75439812     -97.71806908      12.91355632        0        0
S      171.69021939     -96.13577171      14.47711265        1        0
S      171.69021939     -96.13577171      11.35000000        2        0
Mo     167.95570521     -96.06283258      12.91355632        0        0
S      168.89152648     -94.48053521      14.47711265        1        0
S      168.89152648     -94.48053521      11.35000000        2        0
Mo     165.15701230     -94.40759608      12.91355632        0        0
S      166.09283356     -92.82529871      14.47711265        1        0
S      166.09283356     -92.82529871      11.35000000        2        0
Mo     162.35831938     -92.75235958      12.91355632        0        0
S      163.29414065     -91.17006221      14.47711265        1        0
S      163.29414065     -91.17006221      11.35000000        2        0
Mo     159.55962647     -91.09712308      12.91355632        0        0
S      160.49544773     -89.51482571      14.47711265        1        0
S      160.49544773     -89.51482571      11.35000000        2        0
Mo     156.76093355     -89.44188658      12.91355632        0        0
S      157.69675482     -87.85958921      14.47711265        1        0
S      157.69675482     -87.85958921      11.35000000        2        0
Mo     153.96224064     -87.78665008      12.91355632        0        0
S      154.89806191     -86.20435271      14.47711265        1        0
S      154.89806191     -86.20435271      11.35000000        2        0
Mo     151.16354773     -86.13141358      12.91355632        0        0
S      152.09936899     -84.54911621      14.47711265        1        0
S      152.09936899     -84.54911621      11.35000000        2        0
Mo     148.36485481     -84.47617708      12.91355632        0        0
S      149.30067608     -82.89387971      14.47711265        1        0
S      149.30067608     -82.89387971      11.35000000        2        0
Mo     145.56616190     -82.82094058      12.91355632        0        0
S      146.50198317     -81.23864321      14.47711265        1        0
S      146.50198317     -81.23864321      11.35000000        2        0
Mo     142.76746899     -81.16570408      12.91355632        0        0
S      143.70329025     -79.58340671      14.47711265        1        0
S      143.70329025     -79.58340671      11.35000000        2        0
Mo     139.96877607     -79.51046758      12.91355632        0        0
S      140.90459734     -77.92817021      14.47711265        1        0
S      140.90459734     -77.92817021      11.35000000        2        0
Mo     137.17008316     -77.85523108      12.91355632        0        0
S      138.10590443     -76.27293371      14.47711265        1        0
S      138.10590443     -76.27293371      11.35000000        2        0
Mo     134.37139025     -76.19999458      12.91355632        0        0
S      135.30721151     -74.61769721      14.47711265        1        0
S      135.30721151     -74.61769721      11.35000000        2        0
Mo     131.57269733     -74.54475808      12.91355632        0        0
S      132.50851860     -72.96246071      14.47711265        1        0
S      132.50851860     -72.96246071      11.35000000        2        0
Mo     128.77400442     -72.88952158      12.91355632        0        0
S      129.70982569     -71.30722421      14.47711265        1        0
S      129.70982569     -71.30722421      11.35000000        2        0
Mo     125.97531151     -71.23428508      12.91355632        0        0
S      126.91113277     -69.65198771      14.47711265        1        0
S      126.91113277     -69.65198771      11.35000000        2        0
Mo     123.17661859     -69.57904858      12.91355632        0        0
S      124.11243986     -67.99675121      14.47711265        1        0
S      124.11243986     -67.99675121      11.35000000        2        0
Mo     120.37792568     -67.92381208      12.91355632        0        0
S      121.31374695     -66.34151471      14.47711265        1        0
S      121.31374695     -66.34151471      11.35000000        2        0
Mo     117.57923277     -66.26857558      12.91355632        0        0
S      118.51505403     -64.68627821      14.47711265        1        0
S      118.51505403     -64.68627821      11.35000000        2        0
Mo     114.78053985     -64.61333908      12.91355632        0        0
S      115.71636112     -63.03104171      14.47711265        1        0
S      115.71636112     -63.03104171      11.35000000        2        0
Mo     111.98184694     -62.95810258      12.91355632        0        0
S      112.91766821     -61.37580521      14.47711265        1        0
S      112.91766821     -61.37580521      11.35000000        2        0
Mo     109.18315403     -61.30286608      12.91355632        0        0
S      110.11897529     -59.72056871      14.47711265        1        0
S      110.11897529     -59.72056871      11.35000000        2        0
Mo     106.38446111     -59.64762958      12.91355632        0        0
S      107.32028238     -58.06533221      14.47711265        1        0
S      107.32028238     -58.06533221      11.35000000        2        0
Mo     103.58576820     -57.99239308      12.91355632        0        0
S      104.52158947     -56.41009571      14.47711265        1        0
S      104.52158947     -56.41009571      11.35000000        2        0
Mo     100.78707529     -56.33715658      12.91355632        0        0
S      101.72289655     -54.75485921      14.47711265        1        0
S      101.72289655     -54.75485921      11.35000000        2        0
Mo      97.98838237     -54.68192008      12.91355632        0        0
S       98.92420364     -53.09962271      14.47711265        1        0
S       98.92420364     -53.09962271      11.35000000        2        0
Mo      95.18968946     -53.02668358      12.91355632        0        0
S       96.12551073     -51.44438621      14.47711265        1        0
S       96.12551073     -51.44438621      11.35000000        2        0
Mo      92.39099655     -51.37144708      12.91355632        0        0
S       93.32681781     -49.78914971      14.47711265        1        0
S       93.32681781     -49.78914971      11.35000000        2        0
Mo      89.59230363     -49.71621058      12.91355632        0        0
S       90.52812490     -48.13391321      14.47711265        1        0
S       90.52812490     -48.13391321      11.35000000        2        0
Mo      86.79361072     -48.06097408      12.91355632        0        0
S       87.72943198     -46.47867671      14.47711265        1        0
S       87.72943198     -46.47867671      11.35000000        2        0
Mo      83.99491781     -46.40573758      12.91355632        0        0
S       84.93073907     -44.82344021      14.47711265        1        0
S       84.93073907     -44.82344021      11.35000000        2        0
Mo      81.19622489     -44.75050108      12.91355632        0        0
S       82.13204616     -43.16820371      14.47711265        1        0
S       82.13204616     -43.16820371      11.35000000        2        0
Mo      78.39753198     -43.09526458      12.91355632        0        0
S       79.33335324     -41.51296721      14.47711265        1        0
S       79.33335324     -41.51296721      11.35000000        2        0
Mo      75.59883906     -41.44002808      12.91355632        0        0
S       76.53466033     -39.85773071      14.47711265        1        0
S       76.53466033     -39.85773071      11.35000000        2        0
Mo      72.80014615     -39.78479158      12.91355632        0        0
S       73.73596742     -38.20249421      14.47711265        1        0
S       73.73596742     -38.20249421      11.35000000        2        0
Mo      70.00145324     -38.12955509      12.91355632        0        0
S       70.93727450     -36.54725771      14.47711265        1        0
S       70.93727450     -36.54725771      11.35000000        2        0
Mo      67.20276032     -36.47431859      12.91355632        0        0
S       68.13858159     -34.89202121      14.47711265        1        0
S       68.13858159     -34.89202121      11.35000000        2        0
Mo      64.40406741     -34.81908209      12.91355632        0        0
S       65.33988868     -33.23678471      14.47711265        1        0
S       65.33988868     -33.23678471      11.35000000        2        0
Mo      61.60537450     -33.16384559      12.91355632        0        0
S       62.54119576     -31.58154821      14.47711265        1        0
S       62.54119576     -31.58154821      11.35000000        2        0
Mo      58.80668158     -31.50860909      12.91355632        0        0
S       59.74250285     -29.92631171      14.47711265        1        0
S       59.74250285     -29.92631171      11.35000000        2        0
Mo      56.00798867     -29.85337259      12.91355632        0        0
S       56.94380994     -28.27107521      14.47711265        1        0
S       56.94380994     -28.27107521      11.35000000        2        0
Mo      53.20929576     -28.19813609      12.91355632        0        0
S       54.14511702     -26.61583871      14.47711265        1        0
S       54.14511702     -26.61583871      11.35000000        2        0
Mo      50.41060284     -26.54289959      12.91355632        0        0
S       51.34642411     -24.96060221      14.47711265        1        0
S       51.34642411     -24.96060221      11.35000000        2        0
Mo      47.61190993     -24.88766309      12.91355632        0        0
S       48.54773120     -23.30536571      14.47711265        1        0
S       48.54773120     -23.30536571      11.35000000        2        0
Mo      44.81321702     -23.23242659      12.91355632        0        0
S       45.74903828     -21.65012921      14.47711265        1        0
S       45.74903828     -21.65012921      11.35000000        2        0
Mo      42.01452410     -21.57719009      12.91355632        0        0
S       42.95034537     -19.99489271      14.47711265        1        0
S       42.95034537     -19.99489271      11.35000000        2        0
Mo      39.21583119     -19.92195359      12.91355632        0        0
S       40.15165246     -18.33965622      14.47711265        1        0
S       40.15165246     -18.33965622      11.35000000        2        0
Mo      36.41713828     -18.26671709      12.91355632        0        0
S       37.35295954     -16.68441972      14.47711265        1        0
S       37.35295954     -16.68441972      11.35000000        2        0
Mo      33.61844536     -16.61148059      12.91355632        0        0
S       34.55426663     -15.02918322      14.47711265        1        0
S       34.55426663     -15.02918322      11.35000000        2        0
Mo      30.81975245     -14.95624409      12.91355632        0        0
S       31.75557372     -13.37394672      14.47711265        1        0
S       31.75557372     -13.37394672      11.35000000        2        0
Mo      28.02105954     -13.30100759      12.91355632        0        0
S       28.95688080     -11.71871022      14.47711265        1        0
S       28.95688080     -11.71871022      11.35000000        2        0
Mo      25.22236662     -11.64577109      12.91355632        0        0
S       26.15818789     -10.06347372      14.47711265        1        0
S       26.15818789     -10.06347372      11.35000000        2        0
Mo      22.42367371      -9.99053459      12.91355632        0        0
S       23.35949498      -8.40823722      14.47711265        1        0
S       23.35949498      -8.40823722      11.35000000        2        0
Mo      19.62498080      -8.33529809      12.91355632        0        0
S       20.56080206      -6.75300072      14.47711265        1        0
S       20.56080206      -6.75300072      11.35000000        2        0
Mo      16.82628788      -6.68006159      12.91355632        0        0
S       17.76210915      -5.09776422      14.47711265        1        0
S       17.76210915      -5.09776422      11.35000000        2        0
Mo      14.02759497      -5.02482509      12.91355632        0        0
S       14.96341624      -3.44252772      14.47711265        1        0
S       14.96341624      -3.44252772      11.35000000        2        0
Mo      11.22890206      -3.36958859      12.91355632        0        0
S       12.16472332      -1.78729122      14.47711265        1        0
S       12.16472332      -1.78729122      11.35000000        2        0
Mo       8.43020914      -1.71435209      12.91355632        0        0
S        9.36603041      -0.13205472      14.47711265        1        0
S        9.36603041      -0.13205472      11.35000000        2        0
Mo     221.16500097    -124.26096866      12.91355632        0        0
S      222.10082223    -122.67867129      14.47711265        1        0
S      222.10082223    -122.67867129      11.35000000        2        0
Mo     218.36630805    -122.60573216      12.91355632        0        0
S      219.30212932    -121.02343479      14.47711265        1        0
S      219.30212932    -121.02343479      11.35000000        2        0
Mo     215.56761514    -120.95049567      12.91355632        0        0
S      216.50343641    -119.36819829      14.47711265        1        0
S      216.50343641    -119.36819829      11.35000000        2        0
Mo     212.76892223    -119.29525917      12.91355632        0        0
S      213.70474349    -117.71296179      14.47711265        1        0
S      213.70474349    -117.71296179      11.35000000        2        0
Mo     209.97022931    -117.64002267      12.91355632        0        0
S      210.90605058    -116.05772529      14.47711265        1        0
S      210.90605058    -116.05772529      11.35000000        2        0
Mo     207.17153640    -115.98478617      12.91355632        0        0
S      208.10735766    -114.40248879      14.47711265        1        0
S      208.10735766    -114.40248879      11.35000000        2        0
Mo     204.37284349    -114.32954967      12.91355632        0        0
S      205.30866475    -112.74725229      14.47711265        1        0
S      205.30866475    -112.74725229      11.35000000        2        0
Mo     201.57415057    -112.67431317      12.91355632        0        0
S      202.50997184    -111.09201579      14.47711265        1        0
S      202.50997184    -111.09201579      11.35000000        2        0
Mo     198.77545766    -111.01907667      12.91355632        0        0
S      199.71127892    -109.43677929      14.47711265        1        0
S      199.71127892    -109.43677929      11.35000000        2        0
Mo     195.97676474    -109.36384017      12.91355632        0        0
S      196.91258601    -107.78154279      14.47711265        1        0
S      196.91258601    -107.78154279      11.35000000        2        0
Mo     193.17807183    -107.70860367      12.91355632        0        0
S      194.11389310    -106.12630629      14.47711265        1        0
S      194.11389310    -106.12630629      11.35000000        2        0
Mo     190.37937892    -106.05336717      12.91355632        0        0
S      191.31520018    -104.47106979      14.47711265        1        0
S      191.31520018    -104.47106979      11.35000000        2        0
Mo     187.58068600    -104.39813067      12.91355632        0        0
S      188.51650727    -102.81583329      14.47711265        1        0
S      188.51650727    -102.81583329      11.35000000        2        0
Mo     184.78199309    -102.74289417      12.91355632        0        0
S      185.71781436    -101.16059680      14.47711265        1        0
S      185.71781436    -101.16059680      11.35000000        2        0
Mo     181.98330018    -101.08765767      12.91355632        0        0
S      182.91912144     -99.50536030      14.47711265        1        0
S      182.91912144     -99.50536030      11.35000000        2        0
Mo     179.18460726     -99.43242117      12.91355632        0        0
S      180.12042853     -97.85012380      14.47711265        1        0
S      180.12042853     -97.85012380      11.35000000        2        0
Mo     176.38591435     -97.77718467      12.91355632        0        0
S      177.32173562     -96.19488730      14.47711265        1        0
S      177.32173562     -96.19488730      11.35000000        2        0
Mo     173.58722144     -96.12194817      12.91355632        0        0
S      174.52304270     -94.53965080      14.47711265        1        0
S      174.52304270     -94.53965080      11.35000000        2        0
Mo     170.78852852     -94.46671167      12.91355632        0        0
S      171.72434979     -92.88441430      14.47711265        1        0
S      171.72434979     -92.88441430      11.35000000        2        0
Mo     167.98983561     -92.81147517      12.91355632        0        0
S      168.92565688     -91.22917780      14.47711265        1        0
S      168.92565688     -91.22917780      11.35000000        2        0
Mo     165.19114270     -91.15623867      12.91355632        0        0
S      166.12696396     -89.57394130      14.47711265        1        0
S      166.12696396     -89.57394130      11.35000000        2        0
Mo     162.39244978     -89.50100217      12.91355632        0        0
S      163.32827105     -87.91870480      14.47711265        1        0
S      163.32827105     -87.91870480      11.35000000        2        0
Mo     159.59375687     -87.84576567      12.91355632        0        0
S      160.52957814     -86.26346830      14.47711265        1        0
S      160.52957814     -86.26346830      11.35000000        2        0
Mo     156.79506396     -86.19052917      12.91355632        0        0
S      157.73088522     -84.60823180      14.47711265        1        0
S      157.73088522     -84.60823180      11.35000000        2        0
Mo     153.99637104     -84.53529267      12.91355632        0        0
S      154.93219231     -82.95299530      14.47711265        1        0
S      154.93219231     -82.95299530      11.35000000        2        0
Mo     151.19767813     -82.88005617      12.91355632        0        0
S      152.13349940     -81.29775880      14.47711265        1        0
S      152.13349940     -81.29775880      11.35000000        2        0
Mo     148.39898522     -81.22481967      12.91355632        0        0
S      149.33480648     -79.64252230      14.47711265        1        0
S      149.33480648     -79.64252230      11.35000000        2        0
Mo     145.60029230     -79.56958317      12.91355632        0        0
S      146.53611357     -77.98728580      14.47711265        1        0
S      146.53611357     -77.98728580      11.35000000        2        0
Mo     142.80159939     -77.91434667      12.91355632        0        0
S      143.73742066     -76.33204930      14.47711265        1        0
S      143.73742066     -76.33204930      11.35000000        2        0
Mo     140.00290648     -76.25911017      12.91355632        0        0
S      140.93872774     -74.67681280      14.47711265        1        0
S      140.93872774     -74.67681280      11.35000000        2        0
Mo     137.20421356     -74.60387367      12.91355632        0        0
S      138.14003483     -73.02157630      14.47711265        1        0
S      138.14003483     -73.02157630      11.35000000        2        0
Mo     134.40552065     -72.94863717      12.91355632        0        0
S      135.34134192     -71.36633980      14.47711265        1        0
S      135.34134192     -71.36633980      11.35000000        2        0
Mo     131.60682774     -71.29340067      12.91355632        0        0
S      132.54264900     -69.71110330      14.47711265        1        0
S      132.54264900     -69.71110330      11.35000000        2        0
Mo     128.80813482     -69.63816417      12.91355632        0        0
S      129.74395609     -68.05586680      14.47711265        1        0
S      129.74395609     -68.05586680      11.35000000        2        0
Mo     126.00944191     -67.98292767      12.91355632        0        0
S      126.94526317     -66.40063030      14.47711265        1        0
S      126.94526317     -66.40063030      11.35000000        2        0
Mo     123.21074899     -66.32769117      12.91355632        0        0
S      124.14657026     -64.74539380      14.47711265        1        0
S      124.14657026     -64.74539380      11.35000000        2        0
Mo     120.41205608     -64.67245467      12.91355632        0        0
S      121.34787735     -63.09015730      14.47711265        1        0
S      121.34787735     -63.09015730      11.35000000        2        0
Mo     117.61336317     -63.01721817      12.91355632        0        0
S      118.54918443     -61.43492080      14.47711265        1        0
S      118.54918443     -61.43492080      11.35000000        2        0
Mo     114.81467025     -61.36198167      12.91355632        0        0
S      115.75049152     -59.77968430      14.47711265        1        0
S      115.75049152     -59.77968430      11.35000000        2        0
Mo     112.01597734     -59.70674517      12.91355632        0        0
S      112.95179861     -58.12444780      14.47711265        1        0
S      112.95179861     -58.12444780      11.35000000        2        0
Mo     109.21728443     -58.05150867      12.91355632        0        0
S      110.15310569     -56.46921130      14.47711265        1        0
S      110.15310569     -56.46921130      11.35000000        2        0
Mo     106.41859151     -56.39627217      12.91355632        0        0
S      107.35441278     -54.81397480      14.47711265        1        0
S      107.35441278     -54.81397480      11.35000000        2        0
Mo     103.61989860     -54.74103567      12.91355632        0        0
S      104.55571987     -53.15873830      14.47711265        1        0
S      104.55571987     -53.15873830      11.35000000        2        0
Mo     100.82120569     -53.08579917      12.91355632        0        0
S      101.75702695     -51.50350180      14.47711265        1        0
S      101.75702695     -51.50350180      11.35000000        2        0
Mo      98.02251277     -51.43056267      12.91355632        0        0
S       98.95833404     -49.84826530      14.47711265        1        0
S       98.95833404     -49.84826530      11.35000000        2        0
Mo      95.22381986     -49.77532617      12.91355632        0        0
S       96.15964113     -48.19302880      14.47711265        1        0
S       96.15964113     -48.19302880      11.35000000        2        0
Mo      92.42512695     -48.12008967      12.91355632        0        0
S       93.36094821     -46.53779230      14.47711265        1        0
S       93.36094821     -46.53779230      11.35000000        2        0
Mo      89.62643403     -46.46485317      12.91355632        0        0
S       90.56225530     -44.88255580      14.47711265        1        0
S       90.56225530     -44.88255580      11.35000000        2        0
Mo      86.82774112     -44.80961667      12.91355632        0        0
S       87.76356239     -43.22731930      14.47711265        1        0
S       87.76356239     -43.22731930      11.35000000        2        0
Mo      84.02904821     -43.15438017      12.91355632        0        0
S       84.96486947     -41.57208280      14.47711265        1        0
S       84.96486947     -41.57208280      11.35000000        2        0
Mo      81.23035529     -41.49914367      12.91355632        0        0
S       82.16617656     -39.91684630      14.47711265        1        0
S       82.16617656     -39.91684630      11.35000000        2        0
Mo      78.43166238     -39.84390717      12.91355632        0        0
S       79.36748365     -38.26160980      14.47711265        1        0
S       79.36748365     -38.26160980      11.35000000        2        0
Mo      75.63296947     -38.18867067      12.91355632        0        0
S       76.56879073     -36.60637330      14.47711265        1        0
S       76.56879073     -36.60637330      11.35000000        2        0
Mo      72.83427655     -36.53343417      12.91355632        0        0
S       73.77009782     -34.95113680      14.47711265        1        0
S       73.77009782     -34.95113680      11.35000000        2        0
Mo      70.03558364     -34.87819767      12.91355632        0        0
S       70.97140491     -33.29590030      14.47711265        1        0
S       70.97140491     -33.29590030      11.35000000        2        0
Mo      67.23689073     -33.22296117      12.91355632        0        0
S       68.17271199     -31.64066380      14.47711265        1        0
S       68.17271199     -31.64066380      11.35000000        2        0
Mo      64.43819781     -31.56772468      12.91355632        0        0
S       65.37401908     -29.98542730      14.47711265        1        0
S       65.37401908     -29.98542730      11.35000000        2        0
Mo      61.63950490     -29.91248818      12.91355632        0        0
S       62.57532617     -28.33019080      14.47711265        1        0
S       62.57532617     -28.33019080      11.35000000        2        0
Mo      58.84081199     -28.25725168      12.91355632        0        0
S       59.77663325     -26.67495430      14.47711265        1        0
S       59.77663325     -26.67495430      11.35000000        2        0
Mo      56.04211907     -26.60201518      12.91355632        0        0
S       56.97794034     -25.01971780      14.47711265        1        0
S       56.97794034     -25.01971780      11.35000000        2        0
Mo      53.24342616     -24.94677868      12.91355632        0        0
S       54.17924742     -23.36448130      14.47711265        1        0
S       54.17924742     -23.36448130      11.35000000        2        0
Mo      50.44473324     -23.29154218      12.91355632        0        0
S       51.38055451     -21.70924480      14.47711265        1        0
S       51.38055451     -21.70924480      11.35000000        2        0
Mo      47.64604033     -21.63630568      12.91355632        0        0
S       48.58186160     -20.05400830      14.47711265        1        0
S       48.58186160     -20.05400830      11.35000000        2        0
Mo      44.84734742     -19.98106918      12.91355632        0        0
S       45.78316868     -18.39877180      14.47711265        1        0
S       45.78316868     -18.39877180      11.35000000        2        0
Mo      42.04865450     -18.32583268      12.91355632        0        0
S       42.98447577     -16.74353530      14.47711265        1        0
S       42.98447577     -16.74353530      11.35000000        2        0
Mo      39.24996159     -16.67059618      12.91355632        0        0
S       40.18578286     -15.08829880      14.47711265        1        0
S       40.18578286     -15.08829880      11.35000000        2        0
Mo      36.45126868     -15.01535968      12.91355632        0        0
S       37.38708994     -13.43306230      14.47711265        1        0
S       37.38708994     -13.43306230      11.35000000        2        0
Mo      33.65257576     -13.36012318      12.91355632        0        0
S       34.58839703     -11.77782581      14.47711265        1        0
S       34.58839703     -11.77782581      11.35000000        2        0
Mo      30.85388285     -11.70488668      12.91355632        0        0
S       31.78970412     -10.12258931      14.47711265        1        0
S       31.78970412     -10.12258931      11.35000000        2        0
Mo      28.05518994     -10.04965018      12.91355632        0        0
S       28.99101120      -8.46735281      14.47711265        1        0
S       28.99101120      -8.46735281      11.35000000        2        0
Mo      25.25649702      -8.39441368      12.91355632        0        0
S       26.19231829      -6.81211631      14.47711265        1        0
S       26.19231829      -6.81211631      11.35000000        2        0
Mo      22.45780411      -6.73917718      12.91355632        0        0
S       23.39362538      -5.15687981      14.47711265        1        0
S       23.39362538      -5.15687981      11.35000000        2        0
Mo      19.65911120      -5.08394068      12.91355632        0        0
S       20.59493246      -3.50164331      14.47711265        1        0
S       20.59493246      -3.50164331      11.35000000        2        0
Mo      16.86041828      -3.42870418      12.91355632        0        0
S       17.79623955      -1.84640681      14.47711265        1        0
S       17.79623955      -1.84640681      11.35000000        2        0
Mo      14.06172537      -1.77346768      12.91355632        0        0
S       14.99754664      -0.19117031      14.47711265        1        0
S       14.99754664      -0.19117031      11.35000000        2        0
Mo     218.40043845    -119.35437475      12.91355632        0        0
S      219.33625972    -117.77207738      14.47711265        1        0
S      219.33625972    -117.77207738      11.35000000        2        0
Mo     215.60174554    -117.69913825      12.91355632        0        0
S      216.53756681    -116.11684088      14.47711265        1        0
S      216.53756681    -116.11684088      11.35000000        2        0
Mo     212.80305263    -116.04390175      12.91355632        0        0
S      213.73887389    -114.46160438      14.47711265        1        0
S      213.73887389    -114.46160438      11.35000000        2        0
Mo     210.00435971    -114.38866526      12.91355632        0        0
S      210.94018098    -112.80636788      14.47711265        1        0
S      210.94018098    -112.80636788      11.35000000        2        0
Mo     207.20566680    -112.73342876      12.91355632        0        0
S      208.14148807    -111.15113138      14.47711265        1        0
S      208.14148807    -111.15113138      11.35000000        2        0
Mo     204.40697389    -111.07819226      12.91355632        0        0
S      205.34279515    -109.49589488      14.47711265        1        0
S      205.34279515    -109.49589488      11.35000000        2        0
Mo     201.60828097    -109.42295576      12.91355632        0        0
S      202.54410224    -107.84065838      14.47711265        1        0
S      202.54410224    -107.84065838      11.35000000        2        0
Mo     198.80958806    -107.76771926      12.91355632        0        0
S      199.74540933    -106.18542188      14.47711265        1        0
S      199.74540933    -106.18542188      11.35000000        2        0
Mo     196.01089515    -106.11248276      12.91355632        0        0
S      196.94671641    -104.53018538      14.47711265        1        0
S      196.94671641    -104.53018538      11.35000000        2        0
Mo     193.21220223    -104.45724626      12.91355632        0        0
S      194.14802350    -102.87494888      14.47711265        1        0
S      194.14802350    -102.87494888      11.35000000        2        0
Mo     190.41350932    -102.80200976      12.91355632        0        0
S      191.34933059    -101.21971238      14.47711265        1        0
S      191.34933059    -101.21971238      11.35000000        2        0
Mo     187.61481641    -101.14677326      12.91355632        0        0
S      188.55063767     -99.56447588      14.47711265        1        0
S      188.55063767     -99.56447588      11.35000000        2        0
Mo     184.81612349     -99.49153676      12.91355632        0        0
S      185.75194476     -97.90923938      14.47711265        1        0
S      185.75194476     -97.90923938      11.35000000        2        0
Mo     182.01743058     -97.83630026      12.91355632        0        0
S      182.95325185     -96.25400288      14.47711265        1        0
S      182.95325185     -96.25400288      11.35000000        2        0
Mo     179.21873767     -96.18106376      12.91355632        0        0
S      180.15455893     -94.59876639      14.47711265        1        0
S      180.15455893     -94.59876639      11.35000000        2        0
Mo     176.42004475     -94.52582726      12.91355632        0        0
S      177.35586602     -92.94352989      14.47711265        1        0
S      177.35586602     -92.94352989      11.35000000        2        0
Mo     173.62135184     -92.87059076      12.91355632        0        0
S      174.55717310     -91.28829339      14.47711265        1        0
S      174.55717310     -91.28829339      11.35000000        2        0
Mo     170.82265893     -91.21535426      12.91355632        0        0
S      171.75848019     -89.63305689      14.47711265        1        0
S      171.75848019     -89.63305689      11.35000000        2        0
Mo     168.02396601     -89.56011776      12.91355632        0        0
S      168.95978728     -87.97782039      14.47711265        1        0
S      168.95978728     -87.97782039      11.35000000        2        0
Mo     165.22527310     -87.90488126      12.91355632        0        0
S      166.16109436     -86.32258389      14.47711265        1        0
S      166.16109436     -86.32258389      11.35000000        2        0
Mo     162.42658018     -86.24964476      12.91355632        0        0
S      163.36240145     -84.66734739      14.47711265        1        0
S      163.36240145     -84.66734739      11.35000000        2        0
Mo     159.62788727     -84.59440826      12.91355632        0        0
S      160.56370854     -83.01211089      14.47711265        1        0
S      160.56370854     -83.01211089      11.35000000        2        0
Mo     156.82919436     -82.93917176      12.91355632        0        0
S      157.76501562     -81.35687439      14.47711265        1        0
S      157.76501562     -81.35687439      11.35000000        2        0
Mo     154.03050144     -81.28393526      12.91355632        0        0
S      154.96632271     -79.70163789      14.47711265        1        0
S      154.96632271     -79.70163789      11.35000000        2        0
Mo     151.23180853     -79.62869876      12.91355632        0        0
S      152.16762980     -78.04640139      14.47711265        1        0
S      152.16762980     -78.04640139      11.35000000        2        0
Mo     148.43311562     -77.97346226      12.91355632        0        0
S      149.36893688     -76.39116489      14.47711265        1        0
S      149.36893688     -76.39116489      11.35000000        2        0
Mo     145.63442270     -76.31822576      12.91355632        0        0
S      146.57024397     -74.73592839      14.47711265        1        0
S      146.57024397     -74.73592839      11.35000000        2        0
Mo     142.83572979     -74.66298926      12.91355632        0        0
S      143.77155106     -73.08069189      14.47711265        1        0
S      143.77155106     -73.08069189      11.35000000        2        0
Mo     140.03703688     -73.00775276      12.91355632        0        0
S      140.97285814     -71.42545539      14.47711265        1        0
S      140.97285814     -71.42545539      11.35000000        2        0
Mo     137.23834396     -71.35251626      12.91355632        0        0
S      138.17416523     -69.77021889      14.47711265        1        0
S      138.17416523     -69.77021889      11.35000000        2        0
Mo     134.43965105     -69.69727976      12.91355632        0        0
S      135.37547232     -68.11498239      14.47711265        1        0
S      135.37547232     -68.11498239      11.35000000        2        0
Mo     131.64095814     -68.04204326      12.91355632        0        0
S      132.57677940     -66.45974589      14.47711265        1        0
S      132.57677940     -66.45974589      11.35000000        2        0
Mo     128.84226522     -66.38680676      12.91355632        0        0
S      129.77808649     -64.80450939      14.47711265        1        0
S      129.77808649     -64.80450939      11.35000000        2        0
Mo     126.04357231     -64.73157026      12.91355632        0        0
S      126.97939358     -63.14927289      14.47711265        1        0
S      126.97939358     -63.14927289      11.35000000        2        0
Mo     123.24487940     -63.07633376      12.91355632        0        0
S      124.18070066     -61.49403639      14.47711265        1        0
S      124.18070066     -61.49403639      11.35000000        2        0
Mo     120.44618648     -61.42109726      12.91355632        0        0
S      121.38200775     -59.83879989      14.47711265        1        0
S      121.38200775     -59.83879989      11.35000000        2        0
Mo     117.64749357     -59.76586076      12.91355632        0        0
S      118.58331484     -58.18356339      14.47711265        1        0
S      118.58331484     -58.18356339      11.35000000        2        0
Mo     114.84880066     -58.11062426      12.91355632        0        0
S      115.78462192     -56.52832689      14.47711265        1        0
S      115.78462192     -56.52832689      11.35000000        2        0
Mo     112.05010774     -56.45538776      12.91355632        0        0
S      112.98592901     -54.87309039      14.47711265        1        0
S      112.98592901     -54.87309039      11.35000000        2        0
Mo     109.25141483     -54.80015126      12.91355632        0        0
S      110.18723610     -53.21785389      14.47711265        1        0
S      110.18723610     -53.21785389      11.35000000        2        0
Mo     106.45272192     -53.14491476      12.91355632        0        0
S      107.38854318     -51.56261739      14.47711265        1        0
S      107.38854318     -51.56261739      11.35000000        2        0
Mo     103.65402900     -51.48967826      12.91355632        0        0
S      104.58985027     -49.90738089      14.47711265        1        0
S      104.58985027     -49.90738089      11.35000000        2        0
Mo     100.85533609     -49.83444176      12.91355632        0        0
S      101.79115736     -48.25214439      14.47711265        1        0
S      101.79115736     -48.25214439      11.35000000        2        0
Mo      98.05664318     -48.17920526      12.91355632        0        0
S       98.99246444     -46.59690789      14.47711265        1        0
S       98.99246444     -46.59690789      11.35000000        2        0
Mo      95.25795026     -46.52396876      12.91355632        0        0
S       96.19377153     -44.94167139      14.47711265        1        0
S       96.19377153     -44.94167139      11.35000000        2        0
Mo      92.45925735     -44.86873226      12.91355632        0        0
S       93.39507861     -43.28643489      14.47711265        1        0
S       93.39507861     -43.28643489      11.35000000        2        0
Mo      89.66056443     -43.21349576      12.91355632        0        0
S       90.59638570     -41.63119839      14.47711265        1        0
S       90.59638570     -41.63119839      11.35000000        2        0
Mo      86.86187152     -41.55825926      12.91355632        0        0
S       87.79769279     -39.97596189      14.47711265        1        0
S       87.79769279     -39.97596189      11.35000000        2        0
Mo      84.06317861     -39.90302276      12.91355632        0        0
S       84.99899987     -38.32072539      14.47711265        1        0
S       84.99899987     -38.32072539      11.35000000        2        0
Mo      81.26448569     -38.24778626      12.91355632        0        0
S       82.20030696     -36.66548889      14.47711265        1        0
S       82.20030696     -36.66548889      11.35000000        2        0
Mo      78.46579278     -36.59254976      12.91355632        0        0
S       79.40161405     -35.01025239      14.47711265        1        0
S       79.40161405     -35.01025239      11.35000000        2        0
Mo      75.66709987     -34.93731326      12.91355632        0        0
S       76.60292113     -33.35501589      14.47711265        1        0
S       76.60292113     -33.35501589      11.35000000        2        0
Mo      72.86840695     -33.28207676      12.91355632        0        0
S       73.80422822     -31.69977939      14.47711265        1        0
S       73.80422822     -31.69977939      11.35000000        2        0
Mo      70.06971404     -31.62684026      12.91355632        0        0
S       71.00553531     -30.04454289      14.47711265        1        0
S       71.00553531     -30.04454289      11.35000000        2        0
Mo      67.27102113     -29.97160376      12.91355632        0        0
S       68.20684239     -28.38930639      14.47711265        1        0
S       68.20684239     -28.38930639      11.35000000        2        0
Mo      64.47232821     -28.31636726      12.91355632        0        0
S       65.40814948     -26.73406989      14.47711265        1        0
S       65.40814948     -26.73406989      11.35000000        2        0
Mo      61.67363530     -26.66113076      12.91355632        0        0
S       62.60945657     -25.07883339      14.47711265        1        0
S       62.60945657     -25.07883339      11.35000000        2        0
Mo      58.87494239     -25.00589427      12.91355632        0        0
S       59.81076365     -23.42359689      14.47711265        1        0
S       59.81076365     -23.42359689      11.35000000        2        0
Mo      56.07624947     -23.35065777      12.91355632        0        0
S       57.01207074     -21.76836039      14.47711265        1        0
S       57.01207074     -21.76836039      11.35000000        2        0
Mo      53.27755656     -21.69542127      12.91355632        0        0
S       54.21337783     -20.11312389      14.47711265        1        0
S       54.21337783     -20.11312389      11.35000000        2        0
Mo      50.47886365     -20.04018477      12.91355632        0        0
S       51.41468491     -18.45788739      14.47711265        1        0
S       51.41468491     -18.45788739      11.35000000        2        0
Mo      47.68017073     -18.38494827      12.91355632        0        0
S       48.61599200     -16.80265089      14.47711265        1        0
S       48.61599200     -16.80265089      11.35000000        2        0
Mo      44.88147782     -16.72971177      12.91355632        0        0
S       45.81729909     -15.14741439      14.47711265        1        0
S       45.81729909     -15.14741439      11.35000000        2        0
Mo      42.08278491     -15.07447527      12.91355632        0        0
S       43.01860617     -13.49217789      14.47711265        1        0
S       43.01860617     -13.49217789      11.35000000        2        0
Mo      39.28409199     -13.41923877      12.91355632        0        0
S       40.21991326     -11.83694139      14.47711265        1        0
S       40.21991326     -11.83694139      11.35000000        2        0
Mo      36.48539908     -11.76400227      12.91355632        0        0
S       37.42122035     -10.18170489      14.47711265        1        0
S       37.42122035     -10.18170489      11.35000000        2        0
Mo      33.68670617     -10.10876577      12.91355632        0        0
S       34.62252743      -8.52646839      14.47711265        1        0
S       34.62252743      -8.52646839      11.35000000        2        0
Mo      30.88801325      -8.45352927      12.91355632        0        0
S       31.82383452      -6.87123189      14.47711265        1        0
S       31.82383452      -6.87123189      11.35000000        2        0
Mo      28.08932034      -6.79829277      12.91355632        0        0
S       29.02514161      -5.21599540      14.47711265        1        0
S       29.02514161      -5.21599540      11.35000000        2        0
Mo      25.29062743      -5.14305627      12.91355632        0        0
S       26.22644869      -3.56075890      14.47711265        1        0
S       26.22644869      -3.56075890      11.35000000        2        0
Mo      22.49193451      -3.48781977      12.91355632        0        0
S       23.42775578      -1.90552240      14.47711265        1        0
S       23.42775578      -1.90552240      11.35000000        2        0
Mo      19.69324160      -1.83258327      12.91355632        0        0
S       20.62906286      -0.25028590      14.47711265        1        0
S       20.62906286      -0.25028590      11.35000000        2        0
Mo     215.63587594    -114.44778084      12.91355632        0        0
S      216.57169721    -112.86548347      14.47711265        1        0
S      216.57169721    -112.86548347      11.35000000        2        0
Mo     212.83718303    -112.79254434      12.91355632        0        0
S      213.77300429    -111.21024697      14.47711265        1        0
S      213.77300429    -111.21024697      11.35000000        2        0
Mo     210.03849011    -111.13730784      12.91355632        0        0
S      210.97431138    -109.55501047      14.47711265        1        0
S      210.97431138    -109.55501047      11.35000000        2        0
Mo     207.23979720    -109.48207134      12.91355632        0        0
S      208.17561847    -107.89977397      14.47711265        1        0
S      208.17561847    -107.89977397      11.35000000        2        0
Mo     204.44110429    -107.82683485      12.91355632        0        0
S      205.37692555    -106.24453747      14.47711265        1        0
S      205.37692555    -106.24453747      11.35000000        2        0
Mo     201.64241137    -106.17159835      12.91355632        0        0
S      202.57823264    -104.58930097      14.47711265        1        0
S      202.57823264    -104.58930097      11.35000000        2        0
Mo     198.84371846    -104.51636185      12.91355632        0        0
S      199.77953973    -102.93406447      14.47711265        1        0
S      199.77953973    -102.93406447      11.35000000        2        0
Mo     196.04502555    -102.86112535      12.91355632        0        0
S      196.98084681    -101.27882797      14.47711265        1        0
S      196.98084681    -101.27882797      11.35000000        2        0
Mo     193.24633263    -101.20588885      12.91355632        0        0
S      194.18215390     -99.62359147      14.47711265        1        0
S      194.18215390     -99.62359147      11.35000000        2        0
Mo     190.44763972     -99.55065235      12.91355632        0        0
S      191.38346099     -97.96835497      14.47711265        1        0
S      191.38346099     -97.96835497      11.35000000        2        0
Mo     187.64894681     -97.89541585      12.91355632        0        0
S      188.58476807     -96.31311847      14.47711265        1        0
S      188.58476807     -96.31311847      11.35000000        2        0
Mo     184.85025389     -96.24017935      12.91355632        0        0
S      185.78607516     -94.65788197      14.47711265        1        0
S      185.78607516     -94.65788197      11.35000000        2        0
Mo     182.05156098     -94.58494285      12.91355632        0        0
S      182.98738225     -93.00264547      14.47711265        1        0
S      182.98738225     -93.00264547      11.35000000        2        0
Mo     179.25286807     -92.92970635      12.91355632        0        0
S      180.18868933     -91.34740897      14.47711265        1        0
S      180.18868933     -91.34740897      11.35000000        2        0
Mo     176.45417515     -91.27446985      12.91355632        0        0
S      177.38999642     -89.69217247      14.47711265        1        0
S      177.38999642     -89.69217247      11.35000000        2        0
Mo     173.65548224     -89.61923335      12.91355632        0        0
S      174.59130351     -88.03693598      14.47711265        1        0
S      174.59130351     -88.03693598      11.35000000        2        0
Mo     170.85678933     -87.96399685      12.91355632        0        0
S      171.79261059     -86.38169948      14.47711265        1        0
S      171.79261059     -86.38169948      11.35000000        2        0
Mo     168.05809641     -86.30876035      12.91355632        0        0
S      168.99391768     -84.72646298      14.47711265        1        0
S      168.99391768     -84.72646298      11.35000000        2        0
Mo     165.25940350     -84.65352385      12.91355632        0        0
S      166.19522477     -83.07122648      14.47711265        1        0
S      166.19522477     -83.07122648      11.35000000        2        0
Mo     162.46071059     -82.99828735      12.91355632        0        0
S      163.39653185     -81.41598998      14.47711265        1        0
S      163.39653185     -81.41598998      11.35000000        2        0
Mo     159.66201767     -81.34305085      12.91355632        0        0
S      160.59783894     -79.76075348      14.47711265        1        0
S      160.59783894     -79.76075348      11.35000000        2        0
Mo     156.86332476     -79.68781435      12.91355632        0        0
S      157.79914603     -78.10551698      14.47711265        1        0
S      157.79914603     -78.10551698      11.35000000        2        0
Mo     154.06463185     -78.03257785      12.91355632        0        0
S      155.00045311     -76.45028048      14.47711265        1        0
S      155.00045311     -76.45028048      11.35000000        2        0
Mo     151.26593893     -76.37734135      12.91355632        0        0
S      152.20176020     -74.79504398      14.47711265        1        0
S      152.20176020     -74.79504398      11.35000000        2        0
Mo     148.46724602     -74.72210485      12.91355632        0        0
S      149.40306729     -73.13980748      14.47711265        1        0
S      149.40306729     -73.13980748      11.35000000        2        0
Mo     145.66855311     -73.06686835      12.91355632        0        0
S      146.60437437     -71.48457098      14.47711265        1        0
S      146.60437437     -71.48457098      11.35000000        2        0
Mo     142.86986019     -71.41163185      12.91355632        0        0
S      143.80568146     -69.82933448      14.47711265        1        0
S      143.80568146     -69.82933448      11.35000000        2        0
Mo     140.07116728     -69.75639535      12.91355632        0        0
S      141.00698854     -68.17409798      14.47711265        1        0
S      141.00698854     -68.17409798      11.35000000        2        0
Mo     137.27247436     -68.10115885      12.91355632        0        0
S      138.20829563     -66.51886148      14.47711265        1        0
S      138.20829563     -66.51886148      11.35000000        2        0
Mo     134.47378145     -66.44592235      12.91355632        0        0
S      135.40960272     -64.86362498      14.47711265        1        0
S      135.40960272     -64.86362498      11.35000000        2        0
Mo     131.67508854     -64.79068585      12.91355632        0        0
S      132.61090980     -63.20838848      14.47711265        1        0
S      132.61090980     -63.20838848      11.35000000        2        0
Mo     128.87639562     -63.13544935      12.91355632        0        0
S      129.81221689     -61.55315198      14.47711265        1        0
S      129.81221689     -61.55315198      11.35000000        2        0
Mo     126.07770271     -61.48021285      12.91355632        0        0
S      127.01352398     -59.89791548      14.47711265        1        0
S      127.01352398     -59.89791548      11.35000000        2        0
Mo     123.27900980     -59.82497635      12.91355632        0        0
S      124.21483106     -58.24267898      14.47711265        1        0
S      124.21483106     -58.24267898      11.35000000        2        0
Mo     120.48031688     -58.16973985      12.91355632        0        0
S      121.41613815     -56.58744248      14.47711265        1        0
S      121.41613815     -56.58744248      11.35000000        2        0
Mo     117.68162397     -56.51450335      12.91355632        0        0
S      118.61744524     -54.93220598      14.47711265        1        0
S      118.61744524     -54.93220598      11.35000000        2        0
Mo     114.88293106     -54.85926685      12.91355632        0        0
S      115.81875232     -53.27696948      14.47711265        1        0
S      115.81875232     -53.27696948      11.35000000        2        0
Mo     112.08423814     -53.20403035      12.91355632        0        0
S      113.02005941     -51.62173298      14.47711265        1        0
S      113.02005941     -51.62173298      11.35000000        2        0
Mo     109.28554523     -51.54879385      12.91355632        0        0
S      110.22136650     -49.96649648      14.47711265        1        0
S      110.22136650     -49.96649648      11.35000000        2        0
Mo     106.48685232     -49.89355735      12.91355632        0        0
S      107.42267358     -48.31125998      14.47711265        1        0
S      107.42267358     -48.31125998      11.35000000        2        0
Mo     103.68815940     -48.23832085      12.91355632        0        0
S      104.62398067     -46.65602348      14.47711265        1        0
S      104.62398067     -46.65602348      11.35000000        2        0
Mo     100.88946649     -46.58308435      12.91355632        0        0
S      101.82528776     -45.00078698      14.47711265        1        0
S      101.82528776     -45.00078698      11.35000000        2        0
Mo      98.09077358     -44.92784785      12.91355632        0        0
S       99.02659484     -43.34555048      14.47711265        1        0
S       99.02659484     -43.34555048      11.35000000        2        0
Mo      95.29208066     -43.27261135      12.91355632        0        0
S       96.22790193     -41.69031398      14.47711265        1        0
S       96.22790193     -41.69031398      11.35000000        2        0
Mo      92.49338775     -41.61737485      12.91355632        0        0
S       93.42920902     -40.03507748      14.47711265        1        0
S       93.42920902     -40.03507748      11.35000000        2        0
Mo      89.69469484     -39.96213835      12.91355632        0        0
S       90.63051610     -38.37984098      14.47711265        1        0
S       90.63051610     -38.37984098      11.35000000        2        0
Mo      86.89600192     -38.30690185      12.91355632        0        0
S       87.83182319     -36.72460448      14.47711265        1        0
S       87.83182319     -36.72460448      11.35000000        2        0
Mo      84.09730901     -36.65166535      12.91355632        0        0
S       85.03313028     -35.06936798      14.47711265        1        0
S       85.03313028     -35.06936798      11.35000000        2        0
Mo      81.29861610     -34.99642885      12.91355632        0        0
S       82.23443736     -33.41413148      14.47711265        1        0
S       82.23443736     -33.41413148      11.35000000        2        0
Mo      78.49992318     -33.34119235      12.91355632        0        0
S       79.43574445     -31.75889498      14.47711265        1        0
S       79.43574445     -31.75889498      11.35000000        2        0
Mo      75.70123027     -31.68595585      12.91355632        0        0
S       76.63705154     -30.10365848      14.47711265        1        0
S       76.63705154     -30.10365848      11.35000000        2        0
Mo      72.90253736     -30.03071935      12.91355632        0        0
S       73.83835862     -28.44842198      14.47711265        1        0
S       73.83835862     -28.44842198      11.35000000        2        0
Mo      70.10384444     -28.37548285      12.91355632        0        0
S       71.03966571     -26.79318548      14.47711265        1        0
S       71.03966571     -26.79318548      11.35000000        2        0
Mo      67.30515153     -26.72024635      12.91355632        0        0
S       68.24097279     -25.13794898      14.47711265        1        0
S       68.24097279     -25.13794898      11.35000000        2        0
Mo      64.50645862     -25.06500985      12.91355632        0        0
S       65.44227988     -23.48271248      14.47711265        1        0
S       65.44227988     -23.48271248      11.35000000        2        0
Mo      61.70776570     -23.40977335      12.91355632        0        0
S       62.64358697     -21.82747598      14.47711265        1        0
S       62.64358697     -21.82747598      11.35000000        2        0
Mo      58.90907279     -21.75453685      12.91355632        0        0
S       59.84489405     -20.17223948      14.47711265        1        0
S       59.84489405     -20.17223948      11.35000000        2        0
Mo      56.11037987     -20.09930035      12.91355632        0        0
S       57.04620114     -18.51700298      14.47711265        1        0
S       57.04620114     -18.51700298      11.35000000        2        0
Mo      53.31168696     -18.44406386      12.91355632        0        0
S       54.24750823     -16.86176648      14.47711265        1        0
S       54.24750823     -16.86176648      11.35000000        2        0
Mo      50.51299405     -16.78882736      12.91355632        0        0
S       51.44881531     -15.20652998      14.47711265        1        0
S       51.44881531     -15.20652998      11.35000000        2        0
Mo      47.71430113     -15.13359086      12.91355632        0        0
S       48.65012240     -13.55129348      14.47711265        1        0
S       48.65012240     -13.55129348      11.35000000        2        0
Mo      44.91560822     -13.47835436      12.91355632        0        0
S       45.85142949     -11.89605698      14.47711265        1        0
S       45.85142949     -11.89605698      11.35000000        2        0
Mo      42.11691531     -11.82311786      12.91355632        0        0
S       43.05273657     -10.24082048      14.47711265        1        0
S       43.05273657     -10.24082048      11.35000000        2        0
Mo      39.31822239     -10.16788136      12.91355632        0        0
S       40.25404366      -8.58558398      14.47711265        1        0
S       40.25404366      -8.58558398      11.35000000        2        0
Mo      36.51952948      -8.51264486      12.91355632        0        0
S       37.45535075      -6.93034748      14.47711265        1        0
S       37.45535075      -6.93034748      11.35000000        2        0
Mo      33.72083657      -6.85740836      12.91355632        0        0
S       34.65665783      -5.27511098      14.47711265        1        0
S       34.65665783      -5.27511098      11.35000000        2        0
Mo      30.92214365      -5.20217186      12.91355632        0        0
S       31.85796492      -3.61987448      14.47711265        1        0
S       31.85796492      -3.61987448      11.35000000        2        0
Mo      28.12345074      -3.54693536      12.91355632        0        0
S       29.05927201      -1.96463798      14.47711265        1        0
S       29.05927201      -1.96463798      11.35000000        2        0
Mo      25.32475783      -1.89169886      12.91355632        0        0
S       26.26057909      -0.30940148      14.47711265        1        0
S       26.26057909      -0.30940148      11.35000000        2        0
Mo     212.87131343    -109.54118693      12.91355632        0        0
S      213.80713470    -107.95888956      14.47711265        1        0
S      213.80713470    -107.95888956      11.35000000        2        0
Mo     210.07262052    -107.88595043      12.91355632        0        0
S      211.00844178    -106.30365306      14.47711265        1        0
S      211.00844178    -106.30365306      11.35000000        2        0
Mo     207.27392760    -106.23071393      12.91355632        0        0
S      208.20974887    -104.64841656      14.47711265        1        0
S      208.20974887    -104.64841656      11.35000000        2        0
Mo     204.47523469    -104.57547743      12.91355632        0        0
S      205.41105596    -102.99318006      14.47711265        1        0
S      205.41105596    -102.99318006      11.35000000        2        0
Mo     201.67654178    -102.92024093      12.91355632        0        0
S      202.61236304    -101.33794356      14.47711265        1        0
S      202.61236304    -101.33794356      11.35000000        2        0
Mo     198.87784886    -101.26500444      12.91355632        0        0
S      199.81367013     -99.68270706      14.47711265        1        0
S      199.81367013     -99.68270706      11.35000000        2        0
Mo     196.07915595     -99.60976794      12.91355632        0        0
S      197.01497722     -98.02747056      14.47711265        1        0
S      197.01497722     -98.02747056      11.35000000        2        0
Mo     193.28046304     -97.95453144      12.91355632        0        0
S      194.21628430     -96.37223406      14.47711265        1        0
S      194.21628430     -96.37223406      11.35000000        2        0
Mo     190.48177012     -96.29929494      12.91355632        0        0
S      191.41759139     -94.71699756      14.47711265        1        0
S      191.41759139     -94.71699756      11.35000000        2        0
Mo     187.68307721     -94.64405844      12.91355632        0        0
S      188.61889847     -93.06176106      14.47711265        1        0
S      188.61889847     -93.06176106      11.35000000        2        0
Mo     184.88438430     -92.98882194      12.91355632        0        0
S      185.82020556     -91.40652456      14.47711265        1        0
S      185.82020556     -91.40652456      11.35000000        2        0
Mo     182.08569138     -91.33358544      12.91355632        0        0
S      183.02151265     -89.75128806      14.47711265        1        0
S      183.02151265     -89.75128806      11.35000000        2        0
Mo     179.28699847     -89.67834894      12.91355632        0        0
S      180.22281973     -88.09605156      14.47711265        1        0
S      180.22281973     -88.09605156      11.35000000        2        0
Mo     176.48830555     -88.02311244      12.91355632        0        0
S      177.42412682     -86.44081506      14.47711265        1        0
S      177.42412682     -86.44081506      11.35000000        2        0
Mo     173.68961264     -86.36787594      12.91355632        0        0
S      174.62543391     -84.78557856      14.47711265        1        0
S      174.62543391     -84.78557856      11.35000000        2        0
Mo     170.89091973     -84.71263944      12.91355632        0        0
S      171.82674099     -83.13034206      14.47711265        1        0
S      171.82674099     -83.13034206      11.35000000        2        0
Mo     168.09222681     -83.05740294      12.91355632        0        0
S      169.02804808     -81.47510557      14.47711265        1        0
S      169.02804808     -81.47510557      11.35000000        2        0
Mo     165.29353390     -81.40216644      12.91355632        0        0
S      166.22935517     -79.81986907      14.47711265        1        0
S      166.22935517     -79.81986907      11.35000000        2        0
Mo     162.49484099     -79.74692994      12.91355632        0        0
S      163.43066225     -78.16463257      14.47711265        1        0
S      163.43066225     -78.16463257      11.35000000        2        0
Mo     159.69614807     -78.09169344      12.91355632        0        0
S      160.63196934     -76.50939607      14.47711265        1        0
S      160.63196934     -76.50939607      11.35000000        2        0
Mo     156.89745516     -76.43645694      12.91355632        0        0
S      157.83327643     -74.85415957      14.47711265        1        0
S      157.83327643     -74.85415957      11.35000000        2        0
Mo     154.09876225     -74.78122044      12.91355632        0        0
S      155.03458351     -73.19892307      14.47711265        1        0
S      155.03458351     -73.19892307      11.35000000        2        0
Mo     151.30006933     -73.12598394      12.91355632        0        0
S      152.23589060     -71.54368657      14.47711265        1        0
S      152.23589060     -71.54368657      11.35000000        2        0
Mo     148.50137642     -71.47074744      12.91355632        0        0
S      149.43719769     -69.88845007      14.47711265        1        0
S      149.43719769     -69.88845007      11.35000000        2        0
Mo     145.70268351     -69.81551094      12.91355632        0        0
S      146.63850477     -68.23321357      14.47711265        1        0
S      146.63850477     -68.23321357      11.35000000        2        0
Mo     142.90399059     -68.16027444      12.91355632        0        0
S      143.83981186     -66.57797707      14.47711265        1        0
S      143.83981186     -66.57797707      11.35000000        2        0
Mo     140.10529768     -66.50503794      12.91355632        0        0
S      141.04111895     -64.92274057      14.47711265        1        0
S      141.04111895     -64.92274057      11.35000000        2        0
Mo     137.30660477     -64.84980144      12.91355632        0        0
S      138.24242603     -63.26750407      14.47711265        1        0
S      138.24242603     -63.26750407      11.35000000        2        0
Mo     134.50791185     -63.19456494      12.91355632        0        0
S      135.44373312     -61.61226757      14.47711265        1        0
S      135.44373312     -61.61226757      11.35000000        2        0
Mo     131.70921894     -61.53932844      12.91355632        0        0
S      132.64504021     -59.95703107      14.47711265        1        0
S      132.64504021     -59.95703107      11.35000000        2        0
Mo     128.91052603     -59.88409194      12.91355632        0        0
S      129.84634729     -58.30179457      14.47711265        1        0
S      129.84634729     -58.30179457      11.35000000        2        0
Mo     126.11183311     -58.22885544      12.91355632        0        0
S      127.04765438     -56.64655807      14.47711265        1        0
S      127.04765438     -56.64655807      11.35000000        2        0
Mo     123.31314020     -56.57361894      12.91355632        0        0
S      124.24896147     -54.99132157      14.47711265        1        0
S      124.24896147     -54.99132157      11.35000000        2        0
Mo     120.51444729     -54.91838244      12.91355632        0        0
S      121.45026855     -53.33608507      14.47711265        1        0
S      121.45026855     -53.33608507      11.35000000        2        0
Mo     117.71575437     -53.26314594      12.91355632        0        0
S      118.65157564     -51.68084857      14.47711265        1        0
S      118.65157564     -51.68084857      11.35000000        2        0
Mo     114.91706146     -51.60790944      12.91355632        0        0
S      115.85288273     -50.02561207      14.47711265        1        0
S      115.85288273     -50.02561207      11.35000000        2        0
Mo     112.11836855     -49.95267294      12.91355632        0        0
S      113.05418981     -48.37037557      14.47711265        1        0
S      113.05418981     -48.37037557      11.35000000        2        0
Mo     109.31967563     -48.29743644      12.91355632        0        0
S      110.25549690     -46.71513907      14.47711265        1        0
S      110.25549690     -46.71513907      11.35000000        2        0
Mo     106.52098272     -46.64219994      12.91355632        0        0
S      107.45680398     -45.05990257      14.47711265        1        0
S      107.45680398     -45.05990257      11.35000000        2        0
Mo     103.72228980     -44.98696344      12.91355632        0        0
S      104.65811107     -43.40466607      14.47711265        1        0
S      104.65811107     -43.40466607      11.35000000        2        0
Mo     100.92359689     -43.33172694      12.91355632        0        0
S      101.85941816     -41.74942957      14.47711265        1        0
S      101.85941816     -41.74942957      11.35000000        2        0
Mo      98.12490398     -41.67649044      12.91355632        0        0
S       99.06072524     -40.09419307      14.47711265        1        0
S       99.06072524     -40.09419307      11.35000000        2        0
Mo      95.32621106     -40.02125394      12.91355632        0        0
S       96.26203233     -38.43895657      14.47711265        1        0
S       96.26203233     -38.43895657      11.35000000        2        0
Mo      92.52751815     -38.36601744      12.91355632        0        0
S       93.46333942     -36.78372007      14.47711265        1        0
S       93.46333942     -36.78372007      11.35000000        2        0
Mo      89.72882524     -36.71078094      12.91355632        0        0
S       90.66464650     -35.12848357      14.47711265        1        0
S       90.66464650     -35.12848357      11.35000000        2        0
Mo      86.93013232     -35.05554444      12.91355632        0        0
S       87.86595359     -33.47324707      14.47711265        1        0
S       87.86595359     -33.47324707      11.35000000        2        0
Mo      84.13143941     -33.40030794      12.91355632        0        0
S       85.06726068     -31.81801057      14.47711265        1        0
S       85.06726068     -31.81801057      11.35000000        2        0
Mo      81.33274650     -31.74507144      12.91355632        0        0
S       82.26856776     -30.16277407      14.47711265        1        0
S       82.26856776     -30.16277407      11.35000000        2        0
Mo      78.53405358     -30.08983494      12.91355632        0        0
S       79.46987485     -28.50753757      14.47711265        1        0
S       79.46987485     -28.50753757      11.35000000        2        0
Mo      75.73536067     -28.43459844      12.91355632        0        0
S       76.67118194     -26.85230107      14.47711265        1        0
S       76.67118194     -26.85230107      11.35000000        2        0
Mo      72.93666776     -26.77936194      12.91355632        0        0
S       73.87248902     -25.19706457      14.47711265        1        0
S       73.87248902     -25.19706457      11.35000000        2        0
Mo      70.13797484     -25.12412544      12.91355632        0        0
S       71.07379611     -23.54182807      14.47711265        1        0
S       71.07379611     -23.54182807      11.35000000        2        0
Mo      67.33928193     -23.46888894      12.91355632        0        0
S       68.27510320     -21.88659157      14.47711265        1        0
S       68.27510320     -21.88659157      11.35000000        2        0
Mo      64.54058902     -21.81365244      12.91355632        0        0
S       65.47641028     -20.23135507      14.47711265        1        0
S       65.47641028     -20.23135507      11.35000000        2        0
Mo      61.74189610     -20.15841594      12.91355632        0        0
S       62.67771737     -18.57611857      14.47711265        1        0
S       62.67771737     -18.57611857      11.35000000        2        0
Mo      58.94320319     -18.50317944      12.91355632        0        0
S       59.87902446     -16.92088207      14.47711265        1        0
S       59.87902446     -16.92088207      11.35000000        2        0
Mo      56.14451028     -16.84794294      12.91355632        0        0
S       57.08033154     -15.26564557      14.47711265        1        0
S       57.08033154     -15.26564557      11.35000000        2        0
Mo      53.34581736     -15.19270644      12.91355632        0        0
S       54.28163863     -13.61040907      14.47711265        1        0
S       54.28163863     -13.61040907      11.35000000        2        0
Mo      50.54712445     -13.53746994      12.91355632        0        0
S       51.48294572     -11.95517257      14.47711265        1        0
S       51.48294572     -11.95517257      11.35000000        2        0
Mo      47.74843154     -11.88223345      12.91355632        0        0
S       48.68425280     -10.29993607      14.47711265        1        0
S       48.68425280     -10.29993607      11.35000000        2        0
Mo      44.94973862     -10.22699695      12.91355632        0        0
S       45.88555989      -8.64469957      14.47711265        1        0
S       45.88555989      -8.64469957      11.35000000        2        0
Mo      42.15104571      -8.57176045      12.91355632        0        0
S       43.08686698      -6.98946307      14.47711265        1        0
S       43.08686698      -6.98946307      11.35000000        2        0
Mo      39.35235280      -6.91652395      12.91355632        0        0
S       40.28817406      -5.33422657      14.47711265        1        0
S       40.28817406      -5.33422657      11.35000000        2        0
Mo      36.55365988      -5.26128745      12.91355632        0        0
S       37.48948115      -3.67899007      14.47711265        1        0
S       37.48948115      -3.67899007      11.35000000        2        0
Mo      33.75496697      -3.60605095      12.91355632        0        0
S       34.69078823      -2.02375357      14.47711265        1        0
S       34.69078823      -2.02375357      11.35000000        2        0
Mo      30.95627405      -1.95081445      12.91355632        0        0
S       31.89209532      -0.36851707      14.47711265        1        0
S       31.89209532      -0.36851707      11.35000000        2        0
Mo     210.10675092    -104.63459302      12.91355632        0        0
S      211.04257218    -103.05229565      14.47711265        1        0
S      211.04257218    -103.05229565      11.35000000        2        0
Mo     207.30805800    -102.97935652      12.91355632        0        0
S      208.24387927    -101.39705915      14.47711265        1        0
S      208.24387927    -101.39705915      11.35000000        2        0
Mo     204.50936509    -101.32412002      12.91355632        0        0
S      205.44518636     -99.74182265      14.47711265        1        0
S      205.44518636     -99.74182265      11.35000000        2        0
Mo     201.71067218     -99.66888352      12.91355632        0        0
S      202.64649344     -98.08658615      14.47711265        1        0
S      202.64649344     -98.08658615      11.35000000        2        0
Mo     198.91197926     -98.01364702      12.91355632        0        0
S      199.84780053     -96.43134965      14.47711265        1        0
S      199.84780053     -96.43134965      11.35000000        2        0
Mo     196.11328635     -96.35841053      12.91355632        0        0
S      197.04910762     -94.77611315      14.47711265        1        0
S      197.04910762     -94.77611315      11.35000000        2        0
Mo     193.31459344     -94.70317403      12.91355632        0        0
S      194.25041470     -93.12087665      14.47711265        1        0
S      194.25041470     -93.12087665      11.35000000        2        0
Mo     190.51590052     -93.04793753      12.91355632        0        0
S      191.45172179     -91.46564015      14.47711265        1        0
S      191.45172179     -91.46564015      11.35000000        2        0
Mo     187.71720761     -91.39270103      12.91355632        0        0
S      188.65302888     -89.81040365      14.47711265        1        0
S      188.65302888     -89.81040365      11.35000000        2        0
Mo     184.91851470     -89.73746453      12.91355632        0        0
S      185.85433596     -88.15516715      14.47711265        1        0
S      185.85433596     -88.15516715      11.35000000        2        0
Mo     182.11982178     -88.08222803      12.91355632        0        0
S      183.05564305     -86.49993065      14.47711265        1        0
S      183.05564305     -86.49993065      11.35000000        2        0
Mo     179.32112887     -86.42699153      12.91355632        0        0
S      180.25695014     -84.84469415      14.47711265        1        0
S      180.25695014     -84.84469415      11.35000000        2        0
Mo     176.52243596     -84.77175503      12.91355632        0        0
S      177.45825722     -83.18945765      14.47711265        1        0
S      177.45825722     -83.18945765      11.35000000        2        0
Mo     173.72374304     -83.11651853      12.91355632        0        0
S      174.65956431     -81.53422115      14.47711265        1        0
S      174.65956431     -81.53422115      11.35000000        2        0
Mo     170.92505013     -81.46128203      12.91355632        0        0
S      171.86087140     -79.87898465      14.47711265        1        0
S      171.86087140     -79.87898465      11.35000000        2        0
Mo     168.12635722     -79.80604553      12.91355632        0        0
S      169.06217848     -78.22374815      14.47711265        1        0
S      169.06217848     -78.22374815      11.35000000        2        0
Mo     165.32766430     -78.15080903      12.91355632        0        0
S      166.26348557     -76.56851165      14.47711265        1        0
S      166.26348557     -76.56851165      11.35000000        2        0
Mo     162.52897139     -76.49557253      12.91355632        0        0
S      163.46479266     -74.91327516      14.47711265        1        0
S      163.46479266     -74.91327516      11.35000000        2        0
Mo     159.73027848     -74.84033603      12.91355632        0        0
S      160.66609974     -73.25803866      14.47711265        1        0
S      160.66609974     -73.25803866      11.35000000        2        0
Mo     156.93158556     -73.18509953      12.91355632        0        0
S      157.86740683     -71.60280216      14.47711265        1        0
S      157.86740683     -71.60280216      11.35000000        2        0
Mo     154.13289265     -71.52986303      12.91355632        0        0
S      155.06871391     -69.94756566      14.47711265        1        0
S      155.06871391     -69.94756566      11.35000000        2        0
Mo     151.33419973     -69.87462653      12.91355632        0        0
S      152.27002100     -68.29232916      14.47711265        1        0
S      152.27002100     -68.29232916      11.35000000        2        0
Mo     148.53550682     -68.21939003      12.91355632        0        0
S      149.47132809     -66.63709266      14.47711265        1        0
S      149.47132809     -66.63709266      11.35000000        2        0
Mo     145.73681391     -66.56415353      12.91355632        0        0
S      146.67263517     -64.98185616      14.47711265        1        0
S      146.67263517     -64.98185616      11.35000000        2        0
Mo     142.93812099     -64.90891703      12.91355632        0        0
S      143.87394226     -63.32661966      14.47711265        1        0
S      143.87394226     -63.32661966      11.35000000        2        0
Mo     140.13942808     -63.25368053      12.91355632        0        0
S      141.07524935     -61.67138316      14.47711265        1        0
S      141.07524935     -61.67138316      11.35000000        2        0
Mo     137.34073517     -61.59844403      12.91355632        0        0
S      138.27655643     -60.01614666      14.47711265        1        0
S      138.27655643     -60.01614666      11.35000000        2        0
Mo     134.54204225     -59.94320753      12.91355632        0        0
S      135.47786352     -58.36091016      14.47711265        1        0
S      135.47786352     -58.36091016      11.35000000        2        0
Mo     131.74334934     -58.28797103      12.91355632        0        0
S      132.67917061     -56.70567366      14.47711265        1        0
S      132.67917061     -56.70567366      11.35000000        2        0
Mo     128.94465643     -56.63273453      12.91355632        0        0
S      129.88047769     -55.05043716      14.47711265        1        0
S      129.88047769     -55.05043716      11.35000000        2        0
Mo     126.14596351     -54.97749803      12.91355632        0        0
S      127.08178478     -53.39520066      14.47711265        1        0
S      127.08178478     -53.39520066      11.35000000        2        0
Mo     123.34727060     -53.32226153      12.91355632        0        0
S      124.28309187     -51.73996416      14.47711265        1        0
S      124.28309187     -51.73996416      11.35000000        2        0
Mo     120.54857769     -51.66702503      12.91355632        0        0
S      121.48439895     -50.08472766      14.47711265        1        0
S      121.48439895     -50.08472766      11.35000000        2        0
Mo     117.74988477     -50.01178853      12.91355632        0        0
S      118.68570604     -48.42949116      14.47711265        1        0
S      118.68570604     -48.42949116      11.35000000        2        0
Mo     114.95119186     -48.35655203      12.91355632        0        0
S      115.88701313     -46.77425466      14.47711265        1        0
S      115.88701313     -46.77425466      11.35000000        2        0
Mo     112.15249895     -46.70131553      12.91355632        0        0
S      113.08832021     -45.11901816      14.47711265        1        0
S      113.08832021     -45.11901816      11.35000000        2        0
Mo     109.35380603     -45.04607903      12.91355632        0        0
S      110.28962730     -43.46378166      14.47711265        1        0
S      110.28962730     -43.46378166      11.35000000        2        0
Mo     106.55511312     -43.39084253      12.91355632        0        0
S      107.49093439     -41.80854516      14.47711265        1        0
S      107.49093439     -41.80854516      11.35000000        2        0
Mo     103.75642021     -41.73560603      12.91355632        0        0
S      104.69224147     -40.15330866      14.47711265        1        0
S      104.69224147     -40.15330866      11.35000000        2        0
Mo     100.95772729     -40.08036953      12.91355632        0        0
S      101.89354856     -38.49807216      14.47711265        1        0
S      101.89354856     -38.49807216      11.35000000        2        0
Mo      98.15903438     -38.42513303      12.91355632        0        0
S       99.09485565     -36.84283566      14.47711265        1        0
S       99.09485565     -36.84283566      11.35000000        2        0
Mo      95.36034147     -36.76989653      12.91355632        0        0
S       96.29616273     -35.18759916      14.47711265        1        0
S       96.29616273     -35.18759916      11.35000000        2        0
Mo      92.56164855     -35.11466003      12.91355632        0        0
S       93.49746982     -33.53236266      14.47711265        1        0
S       93.49746982     -33.53236266      11.35000000        2        0
Mo      89.76295564     -33.45942353      12.91355632        0        0
S       90.69877691     -31.87712616      14.47711265        1        0
S       90.69877691     -31.87712616      11.35000000        2        0
Mo      86.96426273     -31.80418703      12.91355632        0        0
S       87.90008399     -30.22188966      14.47711265        1        0
S       87.90008399     -30.22188966      11.35000000        2        0
Mo      84.16556981     -30.14895053      12.91355632        0        0
S       85.10139108     -28.56665316      14.47711265        1        0
S       85.10139108     -28.56665316      11.35000000        2        0
Mo      81.36687690     -28.49371403      12.91355632        0        0
S       82.30269816     -26.91141666      14.47711265        1        0
S       82.30269816     -26.91141666      11.35000000        2        0
Mo      78.56818399     -26.83847753      12.91355632        0        0
S       79.50400525     -25.25618016      14.47711265        1        0
S       79.50400525     -25.25618016      11.35000000        2        0
Mo      75.76949107     -25.18324103      12.91355632        0        0
S       76.70531234     -23.60094366      14.47711265        1        0
S       76.70531234     -23.60094366      11.35000000        2        0
Mo      72.97079816     -23.52800453      12.91355632        0        0
S       73.90661942     -21.94570716      14.47711265        1        0
S       73.90661942     -21.94570716      11.35000000        2        0
Mo      70.17210524     -21.87276803      12.91355632        0        0
S       71.10792651     -20.29047066      14.47711265        1        0
S       71.10792651     -20.29047066      11.35000000        2        0
Mo      67.37341233     -20.21753153      12.91355632        0        0
S       68.30923360     -18.63523416      14.47711265        1        0
S       68.30923360     -18.63523416      11.35000000        2        0
Mo      64.57471942     -18.56229503      12.91355632        0        0
S       65.51054068     -16.97999766      14.47711265        1        0
S       65.51054068     -16.97999766      11.35000000        2        0
Mo      61.77602650     -16.90705853      12.91355632        0        0
S       62.71184777     -15.32476116      14.47711265        1        0
S       62.71184777     -15.32476116      11.35000000        2        0
Mo      58.97733359     -15.25182203      12.91355632        0        0
S       59.91315486     -13.66952466      14.47711265        1        0
S       59.91315486     -13.66952466      11.35000000        2        0
Mo      56.17864068     -13.59658553      12.91355632        0        0
S       57.11446194     -12.01428816      14.47711265        1        0
S       57.11446194     -12.01428816      11.35000000        2        0
Mo      53.37994776     -11.94134903      12.91355632        0        0
S       54.31576903     -10.35905166      14.47711265        1        0
S       54.31576903     -10.35905166      11.35000000        2        0
Mo      50.58125485     -10.28611253      12.91355632        0        0
S       51.51707612      -8.70381516      14.47711265        1        0
S       51.51707612      -8.70381516      11.35000000        2        0
Mo      47.78256194      -8.63087603      12.91355632        0        0
S       48.71838320      -7.04857866      14.47711265        1        0
S       48.71838320      -7.04857866      11.35000000        2        0
Mo      44.98386902      -6.97563953      12.91355632        0        0
S       45.91969029      -5.39334216      14.47711265        1        0
S       45.91969029      -5.39334216      11.35000000        2        0
Mo      42.18517611      -5.32040304      12.91355632        0        0
S       43.12099738      -3.73810566      14.47711265        1        0
S       43.12099738      -3.73810566      11.35000000        2        0
Mo      39.38648320      -3.66516654      12.91355632        0        0
S       40.32230446      -2.08286916      14.47711265        1        0
S       40.32230446      -2.08286916      11.35000000        2        0
Mo      36.58779028      -2.00993004      12.91355632        0        0
S       37.52361155      -0.42763266      14.47711265        1        0
S       37.52361155      -0.42763266      11.35000000        2        0
Mo     207.34218841     -99.72799911      12.91355632        0        0
S      208.27800967     -98.14570174      14.47711265        1        0
S      208.27800967     -98.14570174      11.35000000        2        0
Mo     204.54349549     -98.07276261      12.91355632        0        0
S      205.47931676     -96.49046524      14.47711265        1        0
S      205.47931676     -96.49046524      11.35000000        2        0
Mo     201.74480258     -96.41752611      12.91355632        0        0
S      202.68062384     -94.83522874      14.47711265        1        0
S      202.68062384     -94.83522874      11.35000000        2        0
Mo     198.94610967     -94.76228961      12.91355632        0        0
S      199.88193093     -93.17999224      14.47711265        1        0
S      199.88193093     -93.17999224      11.35000000        2        0
Mo     196.14741675     -93.10705311      12.91355632        0        0
S      197.08323802     -91.52475574      14.47711265        1        0
S      197.08323802     -91.52475574      11.35000000        2        0
Mo     193.34872384     -91.45181661      12.91355632        0        0
S      194.28454510     -89.86951924      14.47711265        1        0
S      194.28454510     -89.86951924      11.35000000        2        0
Mo     190.55003092     -89.79658012      12.91355632        0        0
S      191.48585219     -88.21428274      14.47711265        1        0
S      191.48585219     -88.21428274      11.35000000        2        0
Mo     187.75133801     -88.14134362      12.91355632        0        0
S      188.68715928     -86.55904624      14.47711265        1        0
S      188.68715928     -86.55904624      11.35000000        2        0
Mo     184.95264510     -86.48610712      12.91355632        0        0
S      185.88846636     -84.90380974      14.47711265        1        0
S      185.88846636     -84.90380974      11.35000000        2        0
Mo     182.15395218     -84.83087062      12.91355632        0        0
S      183.08977345     -83.24857324      14.47711265        1        0
S      183.08977345     -83.24857324      11.35000000        2        0
Mo     179.35525927     -83.17563412      12.91355632        0        0
S      180.29108054     -81.59333674      14.47711265        1        0
S      180.29108054     -81.59333674      11.35000000        2        0
Mo     176.55656636     -81.52039762      12.91355632        0        0
S      177.49238762     -79.93810024      14.47711265        1        0
S      177.49238762     -79.93810024      11.35000000        2        0
Mo     173.75787344     -79.86516112      12.91355632        0        0
S      174.69369471     -78.28286374      14.47711265        1        0
S      174.69369471     -78.28286374      11.35000000        2        0
Mo     170.95918053     -78.20992462      12.91355632        0        0
S      171.89500180     -76.62762724      14.47711265        1        0
S      171.89500180     -76.62762724      11.35000000        2        0
Mo     168.16048762     -76.55468812      12.91355632        0        0
S      169.09630888     -74.97239074      14.47711265        1        0
S      169.09630888     -74.97239074      11.35000000        2        0
Mo     165.36179470     -74.89945162      12.91355632        0        0
S      166.29761597     -73.31715424      14.47711265        1        0
S      166.29761597     -73.31715424      11.35000000        2        0
Mo     162.56310179     -73.24421512      12.91355632        0        0
S      163.49892306     -71.66191774      14.47711265        1        0
S      163.49892306     -71.66191774      11.35000000        2        0
Mo     159.76440888     -71.58897862      12.91355632        0        0
S      160.70023014     -70.00668124      14.47711265        1        0
S      160.70023014     -70.00668124      11.35000000        2        0
Mo     156.96571596     -69.93374212      12.91355632        0        0
S      157.90153723     -68.35144475      14.47711265        1        0
S      157.90153723     -68.35144475      11.35000000        2        0
Mo     154.16702305     -68.27850562      12.91355632        0        0
S      155.10284432     -66.69620825      14.47711265        1        0
S      155.10284432     -66.69620825      11.35000000        2        0
Mo     151.36833014     -66.62326912      12.91355632        0        0
S      152.30415140     -65.04097175      14.47711265        1        0
S      152.30415140     -65.04097175      11.35000000        2        0
Mo     148.56963722     -64.96803262      12.91355632        0        0
S      149.50545849     -63.38573525      14.47711265        1        0
S      149.50545849     -63.38573525      11.35000000        2        0
Mo     145.77094431     -63.31279612      12.91355632        0        0
S      146.70676558     -61.73049875      14.47711265        1        0
S      146.70676558     -61.73049875      11.35000000        2        0
Mo     142.97225140     -61.65755962      12.91355632        0        0
S      143.90807266     -60.07526225      14.47711265        1        0
S      143.90807266     -60.07526225      11.35000000        2        0
Mo     140.17355848     -60.00232312      12.91355632        0        0
S      141.10937975     -58.42002575      14.47711265        1        0
S      141.10937975     -58.42002575      11.35000000        2        0
Mo     137.37486557     -58.34708662      12.91355632        0        0
S      138.31068684     -56.76478925      14.47711265        1        0
S      138.31068684     -56.76478925      11.35000000        2        0
Mo     134.57617266     -56.69185012      12.91355632        0        0
S      135.51199392     -55.10955275      14.47711265        1        0
S      135.51199392     -55.10955275      11.35000000        2        0
Mo     131.77747974     -55.03661362      12.91355632        0        0
S      132.71330101     -53.45431625      14.47711265        1        0
S      132.71330101     -53.45431625      11.35000000        2        0
Mo     128.97878683     -53.38137712      12.91355632        0        0
S      129.91460810     -51.79907975      14.47711265        1        0
S      129.91460810     -51.79907975      11.35000000        2        0
Mo     126.18009392     -51.72614062      12.91355632        0        0
S      127.11591518     -50.14384325      14.47711265        1        0
S      127.11591518     -50.14384325      11.35000000        2        0
Mo     123.38140100     -50.07090412      12.91355632        0        0
S      124.31722227     -48.48860675      14.47711265        1        0
S      124.31722227     -48.48860675      11.35000000        2        0
Mo     120.58270809     -48.41566762      12.91355632        0        0
S      121.51852935     -46.83337025      14.47711265        1        0
S      121.51852935     -46.83337025      11.35000000        2        0
Mo     117.78401517     -46.76043112      12.91355632        0        0
S      118.71983644     -45.17813375      14.47711265        1        0
S      118.71983644     -45.17813375      11.35000000        2        0
Mo     114.98532226     -45.10519462      12.91355632        0        0
S      115.92114353     -43.52289725      14.47711265        1        0
S      115.92114353     -43.52289725      11.35000000        2        0
Mo     112.18662935     -43.44995812      12.91355632        0        0
S      113.12245061     -41.86766075      14.47711265        1        0
S      113.12245061     -41.86766075      11.35000000        2        0
Mo     109.38793643     -41.79472162      12.91355632        0        0
S      110.32375770     -40.21242425      14.47711265        1        0
S      110.32375770     -40.21242425      11.35000000        2        0
Mo     106.58924352     -40.13948512      12.91355632        0        0
S      107.52506479     -38.55718775      14.47711265        1        0
S      107.52506479     -38.55718775      11.35000000        2        0
Mo     103.79055061     -38.48424862      12.91355632        0        0
S      104.72637187     -36.90195125      14.47711265        1        0
S      104.72637187     -36.90195125      11.35000000        2        0
Mo     100.99185769     -36.82901212      12.91355632        0        0
S      101.92767896     -35.24671475      14.47711265        1        0
S      101.92767896     -35.24671475      11.35000000        2        0
Mo      98.19316478     -35.17377562      12.91355632        0        0
S       99.12898605     -33.59147825      14.47711265        1        0
S       99.12898605     -33.59147825      11.35000000        2        0
Mo      95.39447187     -33.51853912      12.91355632        0        0
S       96.33029313     -31.93624175      14.47711265        1        0
S       96.33029313     -31.93624175      11.35000000        2        0
Mo      92.59577895     -31.86330262      12.91355632        0        0
S       93.53160022     -30.28100525      14.47711265        1        0
S       93.53160022     -30.28100525      11.35000000        2        0
Mo      89.79708604     -30.20806612      12.91355632        0        0
S       90.73290731     -28.62576875      14.47711265        1        0
S       90.73290731     -28.62576875      11.35000000        2        0
Mo      86.99839313     -28.55282962      12.91355632        0        0
S       87.93421439     -26.97053225      14.47711265        1        0
S       87.93421439     -26.97053225      11.35000000        2        0
Mo      84.19970021     -26.89759312      12.91355632        0        0
S       85.13552148     -25.31529575      14.47711265        1        0
S       85.13552148     -25.31529575      11.35000000        2        0
Mo      81.40100730     -25.24235662      12.91355632        0        0
S       82.33682857     -23.66005925      14.47711265        1        0
S       82.33682857     -23.66005925      11.35000000        2        0
Mo      78.60231439     -23.58712012      12.91355632        0        0
S       79.53813565     -22.00482275      14.47711265        1        0
S       79.53813565     -22.00482275      11.35000000        2        0
Mo      75.80362147     -21.93188362      12.91355632        0        0
S       76.73944274     -20.34958625      14.47711265        1        0
S       76.73944274     -20.34958625      11.35000000        2        0
Mo      73.00492856     -20.27664712      12.91355632        0        0
S       73.94074983     -18.69434975      14.47711265        1        0
S       73.94074983     -18.69434975      11.35000000        2        0
Mo      70.20623565     -18.62141062      12.91355632        0        0
S       71.14205691     -17.03911325      14.47711265        1        0
S       71.14205691     -17.03911325      11.35000000        2        0
Mo      67.40754273     -16.96617412      12.91355632        0        0
S       68.34336400     -15.38387675      14.47711265        1        0
S       68.34336400     -15.38387675      11.35000000        2        0
Mo      64.60884982     -15.31093762      12.91355632        0        0
S       65.54467109     -13.72864025      14.47711265        1        0
S       65.54467109     -13.72864025      11.35000000        2        0
Mo      61.81015691     -13.65570112      12.91355632        0        0
S       62.74597817     -12.07340375      14.47711265        1        0
S       62.74597817     -12.07340375      11.35000000        2        0
Mo      59.01146399     -12.00046462      12.91355632        0        0
S       59.94728526     -10.41816725      14.47711265        1        0
S       59.94728526     -10.41816725      11.35000000        2        0
Mo      56.21277108     -10.34522812      12.91355632        0        0
S       57.14859235      -8.76293075      14.47711265        1        0
S       57.14859235      -8.76293075      11.35000000        2        0
Mo      53.41407817      -8.68999162      12.91355632        0        0
S       54.34989943      -7.10769425      14.47711265        1        0
S       54.34989943      -7.10769425      11.35000000        2        0
Mo      50.61538525      -7.03475512      12.91355632        0        0
S       51.55120652      -5.45245775      14.47711265        1        0
S       51.55120652      -5.45245775      11.35000000        2        0
Mo      47.81669234      -5.37951862      12.91355632        0        0
S       48.75251360      -3.79722125      14.47711265        1        0
S       48.75251360      -3.79722125      11.35000000        2        0
Mo      45.01799942      -3.72428212      12.91355632        0        0
S       45.95382069      -2.14198475      14.47711265        1        0
S       45.95382069      -2.14198475      11.35000000        2        0
Mo      42.21930651      -2.06904562      12.91355632        0        0
S       43.15512778      -0.48674825      14.47711265        1        0
S       43.15512778      -0.48674825      11.35000000        2        0
Mo     204.57762589     -94.82140520      12.91355632        0        0
S      205.51344716     -93.23910783      14.47711265        1        0
S      205.51344716     -93.23910783      11.35000000        2        0
Mo     201.77893298     -93.16616870      12.91355632        0        0
S      202.71475425     -91.58387133      14.47711265        1        0
S      202.71475425     -91.58387133      11.35000000        2        0
Mo     198.98024007     -91.51093220      12.91355632        0        0
S      199.91606133     -89.92863483      14.47711265        1        0
S      199.91606133     -89.92863483      11.35000000        2        0
Mo     196.18154715     -89.85569570      12.91355632        0        0
S      197.11736842     -88.27339833      14.47711265        1        0
S      197.11736842     -88.27339833      11.35000000        2        0
Mo     193.38285424     -88.20045920      12.91355632        0        0
S      194.31867551     -86.61816183      14.47711265        1        0
S      194.31867551     -86.61816183      11.35000000        2        0
Mo     190.58416133     -86.54522270      12.91355632        0        0
S      191.51998259     -84.96292533      14.47711265        1        0
S      191.51998259     -84.96292533      11.35000000        2        0
Mo     187.78546841     -84.88998620      12.91355632        0        0
S      188.72128968     -83.30768883      14.47711265        1        0
S      188.72128968     -83.30768883      11.35000000        2        0
Mo     184.98677550     -83.23474971      12.91355632        0        0
S      185.92259677     -81.65245233      14.47711265        1        0
S      185.92259677     -81.65245233      11.35000000        2        0
Mo     182.18808259     -81.57951321      12.91355632        0        0
S      183.12390385     -79.99721583      14.47711265        1        0
S      183.12390385     -79.99721583      11.35000000        2        0
Mo     179.38938967     -79.92427671      12.91355632        0        0
S      180.32521094     -78.34197933      14.47711265        1        0
S      180.32521094     -78.34197933      11.35000000        2        0
Mo     176.59069676     -78.26904021      12.91355632        0        0
S      177.52651803     -76.68674283      14.47711265        1        0
S      177.52651803     -76.68674283      11.35000000        2        0
Mo     173.79200385     -76.61380371      12.91355632        0        0
S      174.72782511     -75.03150633      14.47711265        1        0
S      174.72782511     -75.03150633      11.35000000        2        0
Mo     170.99331093     -74.95856721      12.91355632        0        0
S      171.92913220     -73.37626983      14.47711265        1        0
S      171.92913220     -73.37626983      11.35000000        2        0
Mo     168.19461802     -73.30333071      12.91355632        0        0
S      169.13043928     -71.72103333      14.47711265        1        0
S      169.13043928     -71.72103333      11.35000000        2        0
Mo     165.39592511     -71.64809421      12.91355632        0        0
S      166.33174637     -70.06579683      14.47711265        1        0
S      166.33174637     -70.06579683      11.35000000        2        0
Mo     162.59723219     -69.99285771      12.91355632        0        0
S      163.53305346     -68.41056033      14.47711265        1        0
S      163.53305346     -68.41056033      11.35000000        2        0
Mo     159.79853928     -68.33762121      12.91355632        0        0
S      160.73436054     -66.75532383      14.47711265        1        0
S      160.73436054     -66.75532383      11.35000000        2        0
Mo     156.99984636     -66.68238471      12.91355632        0        0
S      157.93566763     -65.10008733      14.47711265        1        0
S      157.93566763     -65.10008733      11.35000000        2        0
Mo     154.20115345     -65.02714821      12.91355632        0        0
S      155.13697472     -63.44485083      14.47711265        1        0
S      155.13697472     -63.44485083      11.35000000        2        0
Mo     151.40246054     -63.37191171      12.91355632        0        0
S      152.33828180     -61.78961434      14.47711265        1        0
S      152.33828180     -61.78961434      11.35000000        2        0
Mo     148.60376762     -61.71667521      12.91355632        0        0
S      149.53958889     -60.13437784      14.47711265        1        0
S      149.53958889     -60.13437784      11.35000000        2        0
Mo     145.80507471     -60.06143871      12.91355632        0        0
S      146.74089598     -58.47914134      14.47711265        1        0
S      146.74089598     -58.47914134      11.35000000        2        0
Mo     143.00638180     -58.40620221      12.91355632        0        0
S      143.94220306     -56.82390484      14.47711265        1        0
S      143.94220306     -56.82390484      11.35000000        2        0
Mo     140.20768888     -56.75096571      12.91355632        0        0
S      141.14351015     -55.16866834      14.47711265        1        0
S      141.14351015     -55.16866834      11.35000000        2        0
Mo     137.40899597     -55.09572921      12.91355632        0        0
S      138.34481724     -53.51343184      14.47711265        1        0
S      138.34481724     -53.51343184      11.35000000        2        0
Mo     134.61030306     -53.44049271      12.91355632        0        0
S      135.54612432     -51.85819534      14.47711265        1        0
S      135.54612432     -51.85819534      11.35000000        2        0
Mo     131.81161014     -51.78525621      12.91355632        0        0
S      132.74743141     -50.20295884      14.47711265        1        0
S      132.74743141     -50.20295884      11.35000000        2        0
Mo     129.01291723     -50.13001971      12.91355632        0        0
S      129.94873850     -48.54772234      14.47711265        1        0
S      129.94873850     -48.54772234      11.35000000        2        0
Mo     126.21422432     -48.47478321      12.91355632        0        0
S      127.15004558     -46.89248584      14.47711265        1        0
S      127.15004558     -46.89248584      11.35000000        2        0
Mo     123.41553140     -46.81954671      12.91355632        0        0
S      124.35135267     -45.23724934      14.47711265        1        0
S      124.35135267     -45.23724934      11.35000000        2        0
Mo     120.61683849     -45.16431021      12.91355632        0        0
S      121.55265976     -43.58201284      14.47711265        1        0
S      121.55265976     -43.58201284      11.35000000        2        0
Mo     117.81814558     -43.50907371      12.91355632        0        0
S      118.75396684     -41.92677634      14.47711265        1        0
S      118.75396684     -41.92677634      11.35000000        2        0
Mo     115.01945266     -41.85383721      12.91355632        0        0
S      115.95527393     -40.27153984      14.47711265        1        0
S      115.95527393     -40.27153984      11.35000000        2        0
Mo     112.22075975     -40.19860071      12.91355632        0        0
S      113.15658102     -38.61630334      14.47711265        1        0
S      113.15658102     -38.61630334      11.35000000        2        0
Mo     109.42206684     -38.54336421      12.91355632        0        0
S      110.35788810     -36.96106684      14.47711265        1        0
S      110.35788810     -36.96106684      11.35000000        2        0
Mo     106.62337392     -36.88812771      12.91355632        0        0
S      107.55919519     -35.30583034      14.47711265        1        0
S      107.55919519     -35.30583034      11.35000000        2        0
Mo     103.82468101     -35.23289121      12.91355632        0        0
S      104.76050228     -33.65059384      14.47711265        1        0
S      104.76050228     -33.65059384      11.35000000        2        0
Mo     101.02598810     -33.57765471      12.91355632        0        0
S      101.96180936     -31.99535734      14.47711265        1        0
S      101.96180936     -31.99535734      11.35000000        2        0
Mo      98.22729518     -31.92241821      12.91355632        0        0
S       99.16311645     -30.34012084      14.47711265        1        0
S       99.16311645     -30.34012084      11.35000000        2        0
Mo      95.42860227     -30.26718171      12.91355632        0        0
S       96.36442354     -28.68488434      14.47711265        1        0
S       96.36442354     -28.68488434      11.35000000        2        0
Mo      92.62990936     -28.61194521      12.91355632        0        0
S       93.56573062     -27.02964784      14.47711265        1        0
S       93.56573062     -27.02964784      11.35000000        2        0
Mo      89.83121644     -26.95670871      12.91355632        0        0
S       90.76703771     -25.37441134      14.47711265        1        0
S       90.76703771     -25.37441134      11.35000000        2        0
Mo      87.03252353     -25.30147221      12.91355632        0        0
S       87.96834479     -23.71917484      14.47711265        1        0
S       87.96834479     -23.71917484      11.35000000        2        0
Mo      84.23383061     -23.64623571      12.91355632        0        0
S       85.16965188     -22.06393834      14.47711265        1        0
S       85.16965188     -22.06393834      11.35000000        2        0
Mo      81.43513770     -21.99099921      12.91355632        0        0
S       82.37095897     -20.40870184      14.47711265        1        0
S       82.37095897     -20.40870184      11.35000000        2        0
Mo      78.63644479     -20.33576271      12.91355632        0        0
S       79.57226605     -18.75346534      14.47711265        1        0
S       79.57226605     -18.75346534      11.35000000        2        0
Mo      75.83775187     -18.68052621      12.91355632        0        0
S       76.77357314     -17.09822884      14.47711265        1        0
S       76.77357314     -17.09822884      11.35000000        2        0
Mo      73.03905896     -17.02528971      12.91355632        0        0
S       73.97488023     -15.44299234      14.47711265        1        0
S       73.97488023     -15.44299234      11.35000000        2        0
Mo      70.24036605     -15.37005321      12.91355632        0        0
S       71.17618731     -13.78775584      14.47711265        1        0
S       71.17618731     -13.78775584      11.35000000        2        0
Mo      67.44167313     -13.71481671      12.91355632        0        0
S       68.37749440     -12.13251934      14.47711265        1        0
S       68.37749440     -12.13251934      11.35000000        2        0
Mo      64.64298022     -12.05958021      12.91355632        0        0
S       65.57880149     -10.47728284      14.47711265        1        0
S       65.57880149     -10.47728284      11.35000000        2        0
Mo      61.84428731     -10.40434371      12.91355632        0        0
S       62.78010857      -8.82204634      14.47711265        1        0
S       62.78010857      -8.82204634      11.35000000        2        0
Mo      59.04559439      -8.74910721      12.91355632        0        0
S       59.98141566      -7.16680984      14.47711265        1        0
S       59.98141566      -7.16680984      11.35000000        2        0
Mo      56.24690148      -7.09387071      12.91355632        0        0
S       57.18272275      -5.51157334      14.47711265        1        0
S       57.18272275      -5.51157334      11.35000000        2        0
Mo      53.44820857      -5.43863421      12.91355632        0        0
S       54.38402983      -3.85633684      14.47711265        1        0
S       54.38402983      -3.85633684      11.35000000        2        0
Mo      50.64951565      -3.78339771      12.91355632        0        0
S       51.58533692      -2.20110034      14.47711265        1        0
S       51.58533692      -2.20110034      11.35000000        2        0
Mo      47.85082274      -2.12816121      12.91355632        0        0
S       48.78664401      -0.54586384      14.47711265        1        0
S       48.78664401      -0.54586384      11.35000000        2        0
Mo     201.81306338     -89.91481129      12.91355632        0        0
S      202.74888465     -88.33251392      14.47711265        1        0
S      202.74888465     -88.33251392      11.35000000        2        0
Mo     199.01437047     -88.25957479      12.91355632        0        0
S      199.95019173     -86.67727742      14.47711265        1        0
S      199.95019173     -86.67727742      11.35000000        2        0
Mo     196.21567755     -86.60433829      12.91355632        0        0
S      197.15149882     -85.02204092      14.47711265        1        0
S      197.15149882     -85.02204092      11.35000000        2        0
Mo     193.41698464     -84.94910179      12.91355632        0        0
S      194.35280591     -83.36680442      14.47711265        1        0
S      194.35280591     -83.36680442      11.35000000        2        0
Mo     190.61829173     -83.29386529      12.91355632        0        0
S      191.55411299     -81.71156792      14.47711265        1        0
S      191.55411299     -81.71156792      11.35000000        2        0
Mo     187.81959881     -81.63862879      12.91355632        0        0
S      188.75542008     -80.05633142      14.47711265        1        0
S      188.75542008     -80.05633142      11.35000000        2        0
Mo     185.02090590     -79.98339229      12.91355632        0        0
S      185.95672717     -78.40109492      14.47711265        1        0
S      185.95672717     -78.40109492      11.35000000        2        0
Mo     182.22221299     -78.32815579      12.91355632        0        0
S      183.15803425     -76.74585842      14.47711265        1        0
S      183.15803425     -76.74585842      11.35000000        2        0
Mo     179.42352007     -76.67291930      12.91355632        0        0
S      180.35934134     -75.09062192      14.47711265        1        0
S      180.35934134     -75.09062192      11.35000000        2        0
Mo     176.62482716     -75.01768280      12.91355632        0        0
S      177.56064843     -73.43538542      14.47711265        1        0
S      177.56064843     -73.43538542      11.35000000        2        0
Mo     173.82613425     -73.36244630      12.91355632        0        0
S      174.76195551     -71.78014892      14.47711265        1        0
S      174.76195551     -71.78014892      11.35000000        2        0
Mo     171.02744133     -71.70720980      12.91355632        0        0
S      171.96326260     -70.12491242      14.47711265        1        0
S      171.96326260     -70.12491242      11.35000000        2        0
Mo     168.22874842     -70.05197330      12.91355632        0        0
S      169.16456969     -68.46967592      14.47711265        1        0
S      169.16456969     -68.46967592      11.35000000        2        0
Mo     165.43005551     -68.39673680      12.91355632        0        0
S      166.36587677     -66.81443942      14.47711265        1        0
S      166.36587677     -66.81443942      11.35000000        2        0
Mo     162.63136259     -66.74150030      12.91355632        0        0
S      163.56718386     -65.15920292      14.47711265        1        0
S      163.56718386     -65.15920292      11.35000000        2        0
Mo     159.83266968     -65.08626380      12.91355632        0        0
S      160.76849095     -63.50396642      14.47711265        1        0
S      160.76849095     -63.50396642      11.35000000        2        0
Mo     157.03397677     -63.43102730      12.91355632        0        0
S      157.96979803     -61.84872992      14.47711265        1        0
S      157.96979803     -61.84872992      11.35000000        2        0
Mo     154.23528385     -61.77579080      12.91355632        0        0
S      155.17110512     -60.19349342      14.47711265        1        0
S      155.17110512     -60.19349342      11.35000000        2        0
Mo     151.43659094     -60.12055430      12.91355632        0        0
S      152.37241221     -58.53825692      14.47711265        1        0
S      152.37241221     -58.53825692      11.35000000        2        0
Mo     148.63789803     -58.46531780      12.91355632        0        0
S      149.57371929     -56.88302043      14.47711265        1        0
S      149.57371929     -56.88302043      11.35000000        2        0
Mo     145.83920511     -56.81008130      12.91355632        0        0
S      146.77502638     -55.22778393      14.47711265        1        0
S      146.77502638     -55.22778393      11.35000000        2        0
Mo     143.04051220     -55.15484480      12.91355632        0        0
S      143.97633347     -53.57254743      14.47711265        1        0
S      143.97633347     -53.57254743      11.35000000        2        0
Mo     140.24181929     -53.49960830      12.91355632        0        0
S      141.17764055     -51.91731093      14.47711265        1        0
S      141.17764055     -51.91731093      11.35000000        2        0
Mo     137.44312637     -51.84437180      12.91355632        0        0
S      138.37894764     -50.26207443      14.47711265        1        0
S      138.37894764     -50.26207443      11.35000000        2        0
Mo     134.64443346     -50.18913530      12.91355632        0        0
S      135.58025472     -48.60683793      14.47711265        1        0
S      135.58025472     -48.60683793      11.35000000        2        0
Mo     131.84574054     -48.53389880      12.91355632        0        0
S      132.78156181     -46.95160143      14.47711265        1        0
S      132.78156181     -46.95160143      11.35000000        2        0
Mo     129.04704763     -46.87866230      12.91355632        0        0
S      129.98286890     -45.29636493      14.47711265        1        0
S      129.98286890     -45.29636493      11.35000000        2        0
Mo     126.24835472     -45.22342580      12.91355632        0        0
S      127.18417598     -43.64112843      14.47711265        1        0
S      127.18417598     -43.64112843      11.35000000        2        0
Mo     123.44966180     -43.56818930      12.91355632        0        0
S      124.38548307     -41.98589193      14.47711265        1        0
S      124.38548307     -41.98589193      11.35000000        2        0
Mo     120.65096889     -41.91295280      12.91355632        0        0
S      121.58679016     -40.33065543      14.47711265        1        0
S      121.58679016     -40.33065543      11.35000000        2        0
Mo     117.85227598     -40.25771630      12.91355632        0        0
S      118.78809724     -38.67541893      14.47711265        1        0
S      118.78809724     -38.67541893      11.35000000        2        0
Mo     115.05358306     -38.60247980      12.91355632        0        0
S      115.98940433     -37.02018243      14.47711265        1        0
S      115.98940433     -37.02018243      11.35000000        2        0
Mo     112.25489015     -36.94724330      12.91355632        0        0
S      113.19071142     -35.36494593      14.47711265        1        0
S      113.19071142     -35.36494593      11.35000000        2        0
Mo     109.45619724     -35.29200680      12.91355632        0        0
S      110.39201850     -33.70970943      14.47711265        1        0
S      110.39201850     -33.70970943      11.35000000        2        0
Mo     106.65750432     -33.63677030      12.91355632        0        0
S      107.59332559     -32.05447293      14.47711265        1        0
S      107.59332559     -32.05447293      11.35000000        2        0
Mo     103.85881141     -31.98153380      12.91355632        0        0
S      104.79463268     -30.39923643      14.47711265        1        0
S      104.79463268     -30.39923643      11.35000000        2        0
Mo     101.06011850     -30.32629730      12.91355632        0        0
S      101.99593976     -28.74399993      14.47711265        1        0
S      101.99593976     -28.74399993      11.35000000        2        0
Mo      98.26142558     -28.67106080      12.91355632        0        0
S       99.19724685     -27.08876343      14.47711265        1        0
S       99.19724685     -27.08876343      11.35000000        2        0
Mo      95.46273267     -27.01582430      12.91355632        0        0
S       96.39855394     -25.43352693      14.47711265        1        0
S       96.39855394     -25.43352693      11.35000000        2        0
Mo      92.66403976     -25.36058780      12.91355632        0        0
S       93.59986102     -23.77829043      14.47711265        1        0
S       93.59986102     -23.77829043      11.35000000        2        0
Mo      89.86534684     -23.70535130      12.91355632        0        0
S       90.80116811     -22.12305393      14.47711265        1        0
S       90.80116811     -22.12305393      11.35000000        2        0
Mo      87.06665393     -22.05011480      12.91355632        0        0
S       88.00247520     -20.46781743      14.47711265        1        0
S       88.00247520     -20.46781743      11.35000000        2        0
Mo      84.26796102     -20.39487830      12.91355632        0        0
S       85.20378228     -18.81258093      14.47711265        1        0
S       85.20378228     -18.81258093      11.35000000        2        0
Mo      81.46926810     -18.73964180      12.91355632        0        0
S       82.40508937     -17.15734443      14.47711265        1        0
S       82.40508937     -17.15734443      11.35000000        2        0
Mo      78.67057519     -17.08440530      12.91355632        0        0
S       79.60639646     -15.50210793      14.47711265        1        0
S       79.60639646     -15.50210793      11.35000000        2        0
Mo      75.87188228     -15.42916880      12.91355632        0        0
S       76.80770354     -13.84687143      14.47711265        1        0
S       76.80770354     -13.84687143      11.35000000        2        0
Mo      73.07318936     -13.77393230      12.91355632        0        0
S       74.00901063     -12.19163493      14.47711265        1        0
S       74.00901063     -12.19163493      11.35000000        2        0
Mo      70.27449645     -12.11869580      12.91355632        0        0
S       71.21031772     -10.53639843      14.47711265        1        0
S       71.21031772     -10.53639843      11.35000000        2        0
Mo      67.47580354     -10.46345930      12.91355632        0        0
S       68.41162480      -8.88116193      14.47711265        1        0
S       68.41162480      -8.88116193      11.35000000        2        0
Mo      64.67711062      -8.80822280      12.91355632        0        0
S       65.61293189      -7.22592543      14.47711265        1        0
S       65.61293189      -7.22592543      11.35000000        2        0
Mo      61.87841771      -7.15298630      12.91355632        0        0
S       62.81423897      -5.57068893      14.47711265        1        0
S       62.81423897      -5.57068893      11.35000000        2        0
Mo      59.07972480      -5.49774980      12.91355632        0        0
S       60.01554606      -3.91545243      14.47711265        1        0
S       60.01554606      -3.91545243      11.35000000        2        0
Mo      56.28103188      -3.84251330      12.91355632        0        0
S       57.21685315      -2.26021593      14.47711265        1        0
S       57.21685315      -2.26021593      11.35000000        2        0
Mo      53.48233897      -2.18727680      12.91355632        0        0
S       54.41816023      -0.60497943      14.47711265        1        0
S       54.41816023      -0.60497943      11.35000000        2        0
Mo     199.04850087     -85.00821738      12.91355632        0        0
S      199.98432214     -83.42592001      14.47711265        1        0
S      199.98432214     -83.42592001      11.35000000        2        0
Mo     196.24980796     -83.35298088      12.91355632        0        0
S      197.18562922     -81.77068351      14.47711265        1        0
S      197.18562922     -81.77068351      11.35000000        2        0
Mo     193.45111504     -81.69774438      12.91355632        0        0
S      194.38693631     -80.11544701      14.47711265        1        0
S      194.38693631     -80.11544701      11.35000000        2        0
Mo     190.65242213     -80.04250788      12.91355632        0        0
S      191.58824340     -78.46021051      14.47711265        1        0
S      191.58824340     -78.46021051      11.35000000        2        0
Mo     187.85372922     -78.38727138      12.91355632        0        0
S      188.78955048     -76.80497401      14.47711265        1        0
S      188.78955048     -76.80497401      11.35000000        2        0
Mo     185.05503630     -76.73203488      12.91355632        0        0
S      185.99085757     -75.14973751      14.47711265        1        0
S      185.99085757     -75.14973751      11.35000000        2        0
Mo     182.25634339     -75.07679838      12.91355632        0        0
S      183.19216465     -73.49450101      14.47711265        1        0
S      183.19216465     -73.49450101      11.35000000        2        0
Mo     179.45765048     -73.42156188      12.91355632        0        0
S      180.39347174     -71.83926451      14.47711265        1        0
S      180.39347174     -71.83926451      11.35000000        2        0
Mo     176.65895756     -71.76632538      12.91355632        0        0
S      177.59477883     -70.18402801      14.47711265        1        0
S      177.59477883     -70.18402801      11.35000000        2        0
Mo     173.86026465     -70.11108889      12.91355632        0        0
S      174.79608591     -68.52879151      14.47711265        1        0
S      174.79608591     -68.52879151      11.35000000        2        0
Mo     171.06157173     -68.45585239      12.91355632        0        0
S      171.99739300     -66.87355501      14.47711265        1        0
S      171.99739300     -66.87355501      11.35000000        2        0
Mo     168.26287882     -66.80061589      12.91355632        0        0
S      169.19870009     -65.21831851      14.47711265        1        0
S      169.19870009     -65.21831851      11.35000000        2        0
Mo     165.46418591     -65.14537939      12.91355632        0        0
S      166.40000717     -63.56308201      14.47711265        1        0
S      166.40000717     -63.56308201      11.35000000        2        0
Mo     162.66549299     -63.49014289      12.91355632        0        0
S      163.60131426     -61.90784551      14.47711265        1        0
S      163.60131426     -61.90784551      11.35000000        2        0
Mo     159.86680008     -61.83490639      12.91355632        0        0
S      160.80262135     -60.25260901      14.47711265        1        0
S      160.80262135     -60.25260901      11.35000000        2        0
Mo     157.06810717     -60.17966989      12.91355632        0        0
S      158.00392843     -58.59737251      14.47711265        1        0
S      158.00392843     -58.59737251      11.35000000        2        0
Mo     154.26941425     -58.52443339      12.91355632        0        0
S      155.20523552     -56.94213601      14.47711265        1        0
S      155.20523552     -56.94213601      11.35000000        2        0
Mo     151.47072134     -56.86919689      12.91355632        0        0
S      152.40654261     -55.28689951      14.47711265        1        0
S      152.40654261     -55.28689951      11.35000000        2        0
Mo     148.67202843     -55.21396039      12.91355632        0        0
S      149.60784969     -53.63166301      14.47711265        1        0
S      149.60784969     -53.63166301      11.35000000        2        0
Mo     145.87333551     -53.55872389      12.91355632        0        0
S      146.80915678     -51.97642651      14.47711265        1        0
S      146.80915678     -51.97642651      11.35000000        2        0
Mo     143.07464260     -51.90348739      12.91355632        0        0
S      144.01046387     -50.32119002      14.47711265        1        0
S      144.01046387     -50.32119002      11.35000000        2        0
Mo     140.27594969     -50.24825089      12.91355632        0        0
S      141.21177095     -48.66595352      14.47711265        1        0
S      141.21177095     -48.66595352      11.35000000        2        0
Mo     137.47725677     -48.59301439      12.91355632        0        0
S      138.41307804     -47.01071702      14.47711265        1        0
S      138.41307804     -47.01071702      11.35000000        2        0
Mo     134.67856386     -46.93777789      12.91355632        0        0
S      135.61438513     -45.35548052      14.47711265        1        0
S      135.61438513     -45.35548052      11.35000000        2        0
Mo     131.87987095     -45.28254139      12.91355632        0        0
S      132.81569221     -43.70024402      14.47711265        1        0
S      132.81569221     -43.70024402      11.35000000        2        0
Mo     129.08117803     -43.62730489      12.91355632        0        0
S      130.01699930     -42.04500752      14.47711265        1        0
S      130.01699930     -42.04500752      11.35000000        2        0
Mo     126.28248512     -41.97206839      12.91355632        0        0
S      127.21830639     -40.38977102      14.47711265        1        0
S      127.21830639     -40.38977102      11.35000000        2        0
Mo     123.48379221     -40.31683189      12.91355632        0        0
S      124.41961347     -38.73453452      14.47711265        1        0
S      124.41961347     -38.73453452      11.35000000        2        0
Mo     120.68509929     -38.66159539      12.91355632        0        0
S      121.62092056     -37.07929802      14.47711265        1        0
S      121.62092056     -37.07929802      11.35000000        2        0
Mo     117.88640638     -37.00635889      12.91355632        0        0
S      118.82222765     -35.42406152      14.47711265        1        0
S      118.82222765     -35.42406152      11.35000000        2        0
Mo     115.08771347     -35.35112239      12.91355632        0        0
S      116.02353473     -33.76882502      14.47711265        1        0
S      116.02353473     -33.76882502      11.35000000        2        0
Mo     112.28902055     -33.69588589      12.91355632        0        0
S      113.22484182     -32.11358852      14.47711265        1        0
S      113.22484182     -32.11358852      11.35000000        2        0
Mo     109.49032764     -32.04064939      12.91355632        0        0
S      110.42614891     -30.45835202      14.47711265        1        0
S      110.42614891     -30.45835202      11.35000000        2        0
Mo     106.69163473     -30.38541289      12.91355632        0        0
S      107.62745599     -28.80311552      14.47711265        1        0
S      107.62745599     -28.80311552      11.35000000        2        0
Mo     103.89294181     -28.73017639      12.91355632        0        0
S      104.82876308     -27.14787902      14.47711265        1        0
S      104.82876308     -27.14787902      11.35000000        2        0
Mo     101.09424890     -27.07493989      12.91355632        0        0
S      102.03007016     -25.49264252      14.47711265        1        0
S      102.03007016     -25.49264252      11.35000000        2        0
Mo      98.29555598     -25.41970339      12.91355632        0        0
S       99.23137725     -23.83740602      14.47711265        1        0
S       99.23137725     -23.83740602      11.35000000        2        0
Mo      95.49686307     -23.76446689      12.91355632        0        0
S       96.43268434     -22.18216952      14.47711265        1        0
S       96.43268434     -22.18216952      11.35000000        2        0
Mo      92.69817016     -22.10923039      12.91355632        0        0
S       93.63399142     -20.52693302      14.47711265        1        0
S       93.63399142     -20.52693302      11.35000000        2        0
Mo      89.89947724     -20.45399389      12.91355632        0        0
S       90.83529851     -18.87169652      14.47711265        1        0
S       90.83529851     -18.87169652      11.35000000        2        0
Mo      87.10078433     -18.79875739      12.91355632        0        0
S       88.03660560     -17.21646002      14.47711265        1        0
S       88.03660560     -17.21646002      11.35000000        2        0
Mo      84.30209142     -17.14352089      12.91355632        0        0
S       85.23791268     -15.56122352      14.47711265        1        0
S       85.23791268     -15.56122352      11.35000000        2        0
Mo      81.50339850     -15.48828439      12.91355632        0        0
S       82.43921977     -13.90598702      14.47711265        1        0
S       82.43921977     -13.90598702      11.35000000        2        0
Mo      78.70470559     -13.83304789      12.91355632        0        0
S       79.64052686     -12.25075052      14.47711265        1        0
S       79.64052686     -12.25075052      11.35000000        2        0
Mo      75.90601268     -12.17781139      12.91355632        0        0
S       76.84183394     -10.59551402      14.47711265        1        0
S       76.84183394     -10.59551402      11.35000000        2        0
Mo      73.10731976     -10.52257489      12.91355632        0        0
S       74.04314103      -8.94027752      14.47711265        1        0
S       74.04314103      -8.94027752      11.35000000        2        0
Mo      70.30862685      -8.86733839      12.91355632        0        0
S       71.24444812      -7.28504102      14.47711265        1        0
S       71.24444812      -7.28504102      11.35000000        2        0
Mo      67.50993394      -7.21210189      12.91355632        0        0
S       68.44575520      -5.62980452      14.47711265        1        0
S       68.44575520      -5.62980452      11.35000000        2        0
Mo      64.71124102      -5.55686539      12.91355632        0        0
S       65.64706229      -3.97456802      14.47711265        1        0
S       65.64706229      -3.97456802      11.35000000        2        0
Mo      61.91254811      -3.90162889      12.91355632        0        0
S       62.84836938      -2.31933152      14.47711265        1        0
S       62.84836938      -2.31933152      11.35000000        2        0
Mo      59.11385520      -2.24639239      12.91355632        0        0
S       60.04967646      -0.66409502      14.47711265        1        0
S       60.04967646      -0.66409502      11.35000000        2        0
Mo     196.28393836     -80.10162347      12.91355632        0        0
S      197.21975962     -78.51932610      14.47711265        1        0
S      197.21975962     -78.51932610      11.35000000        2        0
Mo     193.48524544     -78.44638697      12.91355632        0        0
S      194.42106671     -76.86408960      14.47711265        1        0
S      194.42106671     -76.86408960      11.35000000        2        0
Mo     190.68655253     -76.79115047      12.91355632        0        0
S      191.62237380     -75.20885310      14.47711265        1        0
S      191.62237380     -75.20885310      11.35000000        2        0
Mo     187.88785962     -75.13591397      12.91355632        0        0
S      188.82368088     -73.55361660      14.47711265        1        0
S      188.82368088     -73.55361660      11.35000000        2        0
Mo     185.08916670     -73.48067747      12.91355632        0        0
S      186.02498797     -71.89838010      14.47711265        1        0
S      186.02498797     -71.89838010      11.35000000        2        0
Mo     182.29047379     -71.82544097      12.91355632        0        0
S      183.22629506     -70.24314360      14.47711265        1        0
S      183.22629506     -70.24314360      11.35000000        2        0
Mo     179.49178088     -70.17020447      12.91355632        0        0
S      180.42760214     -68.58790710      14.47711265        1        0
S      180.42760214     -68.58790710      11.35000000        2        0
Mo     176.69308796     -68.51496797      12.91355632        0        0
S      177.62890923     -66.93267060      14.47711265        1        0
S      177.62890923     -66.93267060      11.35000000        2        0
Mo     173.89439505     -66.85973147      12.91355632        0        0
S      174.83021632     -65.27743410      14.47711265        1        0
S      174.83021632     -65.27743410      11.35000000        2        0
Mo     171.09570214     -65.20449497      12.91355632        0        0
S      172.03152340     -63.62219760      14.47711265        1        0
S      172.03152340     -63.62219760      11.35000000        2        0
Mo     168.29700922     -63.54925848      12.91355632        0        0
S      169.23283049     -61.96696110      14.47711265        1        0
S      169.23283049     -61.96696110      11.35000000        2        0
Mo     165.49831631     -61.89402198      12.91355632        0        0
S      166.43413758     -60.31172460      14.47711265        1        0
S      166.43413758     -60.31172460      11.35000000        2        0
Mo     162.69962340     -60.23878548      12.91355632        0        0
S      163.63544466     -58.65648810      14.47711265        1        0
S      163.63544466     -58.65648810      11.35000000        2        0
Mo     159.90093048     -58.58354898      12.91355632        0        0
S      160.83675175     -57.00125160      14.47711265        1        0
S      160.83675175     -57.00125160      11.35000000        2        0
Mo     157.10223757     -56.92831248      12.91355632        0        0
S      158.03805884     -55.34601510      14.47711265        1        0
S      158.03805884     -55.34601510      11.35000000        2        0
Mo     154.30354466     -55.27307598      12.91355632        0        0
S      155.23936592     -53.69077860      14.47711265        1        0
S      155.23936592     -53.69077860      11.35000000        2        0
Mo     151.50485174     -53.61783948      12.91355632        0        0
S      152.44067301     -52.03554210      14.47711265        1        0
S      152.44067301     -52.03554210      11.35000000        2        0
Mo     148.70615883     -51.96260298      12.91355632        0        0
S      149.64198009     -50.38030560      14.47711265        1        0
S      149.64198009     -50.38030560      11.35000000        2        0
Mo     145.90746591     -50.30736648      12.91355632        0        0
S      146.84328718     -48.72506910      14.47711265        1        0
S      146.84328718     -48.72506910      11.35000000        2        0
Mo     143.10877300     -48.65212998      12.91355632        0        0
S      144.04459427     -47.06983260      14.47711265        1        0
S      144.04459427     -47.06983260      11.35000000        2        0
Mo     140.31008009     -46.99689348      12.91355632        0        0
S      141.24590135     -45.41459610      14.47711265        1        0
S      141.24590135     -45.41459610      11.35000000        2        0
Mo     137.51138717     -45.34165698      12.91355632        0        0
S      138.44720844     -43.75935961      14.47711265        1        0
S      138.44720844     -43.75935961      11.35000000        2        0
Mo     134.71269426     -43.68642048      12.91355632        0        0
S      135.64851553     -42.10412311      14.47711265        1        0
S      135.64851553     -42.10412311      11.35000000        2        0
Mo     131.91400135     -42.03118398      12.91355632        0        0
S      132.84982261     -40.44888661      14.47711265        1        0
S      132.84982261     -40.44888661      11.35000000        2        0
Mo     129.11530843     -40.37594748      12.91355632        0        0
S      130.05112970     -38.79365011      14.47711265        1        0
S      130.05112970     -38.79365011      11.35000000        2        0
Mo     126.31661552     -38.72071098      12.91355632        0        0
S      127.25243679     -37.13841361      14.47711265        1        0
S      127.25243679     -37.13841361      11.35000000        2        0
Mo     123.51792261     -37.06547448      12.91355632        0        0
S      124.45374387     -35.48317711      14.47711265        1        0
S      124.45374387     -35.48317711      11.35000000        2        0
Mo     120.71922969     -35.41023798      12.91355632        0        0
S      121.65505096     -33.82794061      14.47711265        1        0
S      121.65505096     -33.82794061      11.35000000        2        0
Mo     117.92053678     -33.75500148      12.91355632        0        0
S      118.85635805     -32.17270411      14.47711265        1        0
S      118.85635805     -32.17270411      11.35000000        2        0
Mo     115.12184387     -32.09976498      12.91355632        0        0
S      116.05766513     -30.51746761      14.47711265        1        0
S      116.05766513     -30.51746761      11.35000000        2        0
Mo     112.32315095     -30.44452848      12.91355632        0        0
S      113.25897222     -28.86223111      14.47711265        1        0
S      113.25897222     -28.86223111      11.35000000        2        0
Mo     109.52445804     -28.78929198      12.91355632        0        0
S      110.46027931     -27.20699461      14.47711265        1        0
S      110.46027931     -27.20699461      11.35000000        2        0
Mo     106.72576513     -27.13405548      12.91355632        0        0
S      107.66158639     -25.55175811      14.47711265        1        0
S      107.66158639     -25.55175811      11.35000000        2        0
Mo     103.92707221     -25.47881898      12.91355632        0        0
S      104.86289348     -23.89652161      14.47711265        1        0
S      104.86289348     -23.89652161      11.35000000        2        0
Mo     101.12837930     -23.82358248      12.91355632        0        0
S      102.06420057     -22.24128511      14.47711265        1        0
S      102.06420057     -22.24128511      11.35000000        2        0
Mo      98.32968639     -22.16834598      12.91355632        0        0
S       99.26550765     -20.58604861      14.47711265        1        0
S       99.26550765     -20.58604861      11.35000000        2        0
Mo      95.53099347     -20.51310948      12.91355632        0        0
S       96.46681474     -18.93081211      14.47711265        1        0
S       96.46681474     -18.93081211      11.35000000        2        0
Mo      92.73230056     -18.85787298      12.91355632        0        0
S       93.66812183     -17.27557561      14.47711265        1        0
S       93.66812183     -17.27557561      11.35000000        2        0
Mo      89.93360765     -17.20263648      12.91355632        0        0
S       90.86942891     -15.62033911      14.47711265        1        0
S       90.86942891     -15.62033911      11.35000000        2        0
Mo      87.13491473     -15.54739998      12.91355632        0        0
S       88.07073600     -13.96510261      14.47711265        1        0
S       88.07073600     -13.96510261      11.35000000        2        0
Mo      84.33622182     -13.89216348      12.91355632        0        0
S       85.27204309     -12.30986611      14.47711265        1        0
S       85.27204309     -12.30986611      11.35000000        2        0
Mo      81.53752891     -12.23692698      12.91355632        0        0
S       82.47335017     -10.65462961      14.47711265        1        0
S       82.47335017     -10.65462961      11.35000000        2        0
Mo      78.73883599     -10.58169048      12.91355632        0        0
S       79.67465726      -8.99939311      14.47711265        1        0
S       79.67465726      -8.99939311      11.35000000        2        0
Mo      75.94014308      -8.92645398      12.91355632        0        0
S       76.87596434      -7.34415661      14.47711265        1        0
S       76.87596434      -7.34415661      11.35000000        2        0
Mo      73.14145017      -7.27121748      12.91355632        0        0
S       74.07727143      -5.68892011      14.47711265        1        0
S       74.07727143      -5.68892011      11.35000000        2        0
Mo      70.34275725      -5.61598098      12.91355632        0        0
S       71.27857852      -4.03368361      14.47711265        1        0
S       71.27857852      -4.03368361      11.35000000        2        0
Mo      67.54406434      -3.96074448      12.91355632        0        0
S       68.47988560      -2.37844711      14.47711265        1        0
S       68.47988560      -2.37844711      11.35000000        2        0
Mo      64.74537142      -2.30550798      12.91355632        0        0
S       65.68119269      -0.72321061      14.47711265        1        0
S       65.68119269      -0.72321061      11.35000000        2        0
Mo     193.51937585     -75.19502956      12.91355632        0        0
S      194.45519711     -73.61273219      14.47711265        1        0
S      194.45519711     -73.61273219      11.35000000        2        0
Mo     190.72068293     -73.53979306      12.91355632        0        0
S      191.65650420     -71.95749569      14.47711265        1        0
S      191.65650420     -71.95749569      11.35000000        2        0
Mo     187.92199002     -71.88455656      12.91355632        0        0
S      188.85781128     -70.30225919      14.47711265        1        0
S      188.85781128     -70.30225919      11.35000000        2        0
Mo     185.12329710     -70.22932006      12.91355632        0        0
S      186.05911837     -68.64702269      14.47711265        1        0
S      186.05911837     -68.64702269      11.35000000        2        0
Mo     182.32460419     -68.57408356      12.91355632        0        0
S      183.26042546     -66.99178619      14.47711265        1        0
S      183.26042546     -66.99178619      11.35000000        2        0
Mo     179.52591128     -66.91884706      12.91355632        0        0
S      180.46173254     -65.33654969      14.47711265        1        0
S      180.46173254     -65.33654969      11.35000000        2        0
Mo     176.72721836     -65.26361056      12.91355632        0        0
S      177.66303963     -63.68131319      14.47711265        1        0
S      177.66303963     -63.68131319      11.35000000        2        0
Mo     173.92852545     -63.60837406      12.91355632        0        0
S      174.86434672     -62.02607669      14.47711265        1        0
S      174.86434672     -62.02607669      11.35000000        2        0
Mo     171.12983254     -61.95313756      12.91355632        0        0
S      172.06565380     -60.37084019      14.47711265        1        0
S      172.06565380     -60.37084019      11.35000000        2        0
Mo     168.33113962     -60.29790106      12.91355632        0        0
S      169.26696089     -58.71560369      14.47711265        1        0
S      169.26696089     -58.71560369      11.35000000        2        0
Mo     165.53244671     -58.64266456      12.91355632        0        0
S      166.46826798     -57.06036719      14.47711265        1        0
S      166.46826798     -57.06036719      11.35000000        2        0
Mo     162.73375380     -56.98742807      12.91355632        0        0
S      163.66957506     -55.40513069      14.47711265        1        0
S      163.66957506     -55.40513069      11.35000000        2        0
Mo     159.93506088     -55.33219157      12.91355632        0        0
S      160.87088215     -53.74989419      14.47711265        1        0
S      160.87088215     -53.74989419      11.35000000        2        0
Mo     157.13636797     -53.67695507      12.91355632        0        0
S      158.07218924     -52.09465769      14.47711265        1        0
S      158.07218924     -52.09465769      11.35000000        2        0
Mo     154.33767506     -52.02171857      12.91355632        0        0
S      155.27349632     -50.43942119      14.47711265        1        0
S      155.27349632     -50.43942119      11.35000000        2        0
Mo     151.53898214     -50.36648207      12.91355632        0        0
S      152.47480341     -48.78418469      14.47711265        1        0
S      152.47480341     -48.78418469      11.35000000        2        0
Mo     148.74028923     -48.71124557      12.91355632        0        0
S      149.67611050     -47.12894819      14.47711265        1        0
S      149.67611050     -47.12894819      11.35000000        2        0
Mo     145.94159632     -47.05600907      12.91355632        0        0
S      146.87741758     -45.47371169      14.47711265        1        0
S      146.87741758     -45.47371169      11.35000000        2        0
Mo     143.14290340     -45.40077257      12.91355632        0        0
S      144.07872467     -43.81847519      14.47711265        1        0
S      144.07872467     -43.81847519      11.35000000        2        0
Mo     140.34421049     -43.74553607      12.91355632        0        0
S      141.28003176     -42.16323869      14.47711265        1        0
S      141.28003176     -42.16323869      11.35000000        2        0
Mo     137.54551758     -42.09029957      12.91355632        0        0
S      138.48133884     -40.50800219      14.47711265        1        0
S      138.48133884     -40.50800219      11.35000000        2        0
Mo     134.74682466     -40.43506307      12.91355632        0        0
S      135.68264593     -38.85276569      14.47711265        1        0
S      135.68264593     -38.85276569      11.35000000        2        0
Mo     131.94813175     -38.77982657      12.91355632        0        0
S      132.88395302     -37.19752920      14.47711265        1        0
S      132.88395302     -37.19752920      11.35000000        2        0
Mo     129.14943884     -37.12459007      12.91355632        0        0
S      130.08526010     -35.54229270      14.47711265        1        0
S      130.08526010     -35.54229270      11.35000000        2        0
Mo     126.35074592     -35.46935357      12.91355632        0        0
S      127.28656719     -33.88705620      14.47711265        1        0
S      127.28656719     -33.88705620      11.35000000        2        0
Mo     123.55205301     -33.81411707      12.91355632        0        0
S      124.48787428     -32.23181970      14.47711265        1        0
S      124.48787428     -32.23181970      11.35000000        2        0
Mo     120.75336010     -32.15888057      12.91355632        0        0
S      121.68918136     -30.57658320      14.47711265        1        0
S      121.68918136     -30.57658320      11.35000000        2        0
Mo     117.95466718     -30.50364407      12.91355632        0        0
S      118.89048845     -28.92134670      14.47711265        1        0
S      118.89048845     -28.92134670      11.35000000        2        0
Mo     115.15597427     -28.84840757      12.91355632        0        0
S      116.09179553     -27.26611020      14.47711265        1        0
S      116.09179553     -27.26611020      11.35000000        2        0
Mo     112.35728135     -27.19317107      12.91355632        0        0
S      113.29310262     -25.61087370      14.47711265        1        0
S      113.29310262     -25.61087370      11.35000000        2        0
Mo     109.55858844     -25.53793457      12.91355632        0        0
S      110.49440971     -23.95563720      14.47711265        1        0
S      110.49440971     -23.95563720      11.35000000        2        0
Mo     106.75989553     -23.88269807      12.91355632        0        0
S      107.69571679     -22.30040070      14.47711265        1        0
S      107.69571679     -22.30040070      11.35000000        2        0
Mo     103.96120261     -22.22746157      12.91355632        0        0
S      104.89702388     -20.64516420      14.47711265        1        0
S      104.89702388     -20.64516420      11.35000000        2        0
Mo     101.16250970     -20.57222507      12.91355632        0        0
S      102.09833097     -18.98992770      14.47711265        1        0
S      102.09833097     -18.98992770      11.35000000        2        0
Mo      98.36381679     -18.91698857      12.91355632        0        0
S       99.29963805     -17.33469120      14.47711265        1        0
S       99.29963805     -17.33469120      11.35000000        2        0
Mo      95.56512387     -17.26175207      12.91355632        0        0
S       96.50094514     -15.67945470      14.47711265        1        0
S       96.50094514     -15.67945470      11.35000000        2        0
Mo      92.76643096     -15.60651557      12.91355632        0        0
S       93.70225223     -14.02421820      14.47711265        1        0
S       93.70225223     -14.02421820      11.35000000        2        0
Mo      89.96773805     -13.95127907      12.91355632        0        0
S       90.90355931     -12.36898170      14.47711265        1        0
S       90.90355931     -12.36898170      11.35000000        2        0
Mo      87.16904513     -12.29604257      12.91355632        0        0
S       88.10486640     -10.71374520      14.47711265        1        0
S       88.10486640     -10.71374520      11.35000000        2        0
Mo      84.37035222     -10.64080607      12.91355632        0        0
S       85.30617349      -9.05850870      14.47711265        1        0
S       85.30617349      -9.05850870      11.35000000        2        0
Mo      81.57165931      -8.98556957      12.91355632        0        0
S       82.50748057      -7.40327220      14.47711265        1        0
S       82.50748057      -7.40327220      11.35000000        2        0
Mo      78.77296639      -7.33033307      12.91355632        0        0
S       79.70878766      -5.74803570      14.47711265        1        0
S       79.70878766      -5.74803570      11.35000000        2        0
Mo      75.97427348      -5.67509657      12.91355632        0        0
S       76.91009475      -4.09279920      14.47711265        1        0
S       76.91009475      -4.09279920      11.35000000        2        0
Mo      73.17558057      -4.01986007      12.91355632        0        0
S       74.11140183      -2.43756270      14.47711265        1        0
S       74.11140183      -2.43756270      11.35000000        2        0
Mo      70.37688765      -2.36462357      12.91355632        0        0
S       71.31270892      -0.78232620      14.47711265        1        0
S       71.31270892      -0.78232620      11.35000000        2        0
Mo     190.75481333     -70.28843565      12.91355632        0        0
S      191.69063460     -68.70613828      14.47711265        1        0
S      191.69063460     -68.70613828      11.35000000        2        0
Mo     187.95612042     -68.63319915      12.91355632        0        0
S      188.89194169     -67.05090178      14.47711265        1        0
S      188.89194169     -67.05090178      11.35000000        2        0
Mo     185.15742751     -66.97796265      12.91355632        0        0
S      186.09324877     -65.39566528      14.47711265        1        0
S      186.09324877     -65.39566528      11.35000000        2        0
Mo     182.35873459     -65.32272615      12.91355632        0        0
S      183.29455586     -63.74042878      14.47711265        1        0
S      183.29455586     -63.74042878      11.35000000        2        0
Mo     179.56004168     -63.66748965      12.91355632        0        0
S      180.49586295     -62.08519228      14.47711265        1        0
S      180.49586295     -62.08519228      11.35000000        2        0
Mo     176.76134877     -62.01225315      12.91355632        0        0
S      177.69717003     -60.42995578      14.47711265        1        0
S      177.69717003     -60.42995578      11.35000000        2        0
Mo     173.96265585     -60.35701665      12.91355632        0        0
S      174.89847712     -58.77471928      14.47711265        1        0
S      174.89847712     -58.77471928      11.35000000        2        0
Mo     171.16396294     -58.70178015      12.91355632        0        0
S      172.09978421     -57.11948278      14.47711265        1        0
S      172.09978421     -57.11948278      11.35000000        2        0
Mo     168.36527003     -57.04654365      12.91355632        0        0
S      169.30109129     -55.46424628      14.47711265        1        0
S      169.30109129     -55.46424628      11.35000000        2        0
Mo     165.56657711     -55.39130715      12.91355632        0        0
S      166.50239838     -53.80900978      14.47711265        1        0
S      166.50239838     -53.80900978      11.35000000        2        0
Mo     162.76788420     -53.73607065      12.91355632        0        0
S      163.70370546     -52.15377328      14.47711265        1        0
S      163.70370546     -52.15377328      11.35000000        2        0
Mo     159.96919129     -52.08083415      12.91355632        0        0
S      160.90501255     -50.49853678      14.47711265        1        0
S      160.90501255     -50.49853678      11.35000000        2        0
Mo     157.17049837     -50.42559766      12.91355632        0        0
S      158.10631964     -48.84330028      14.47711265        1        0
S      158.10631964     -48.84330028      11.35000000        2        0
Mo     154.37180546     -48.77036116      12.91355632        0        0
S      155.30762672     -47.18806378      14.47711265        1        0
S      155.30762672     -47.18806378      11.35000000        2        0
Mo     151.57311254     -47.11512466      12.91355632        0        0
S      152.50893381     -45.53282728      14.47711265        1        0
S      152.50893381     -45.53282728      11.35000000        2        0
Mo     148.77441963     -45.45988816      12.91355632        0        0
S      149.71024090     -43.87759078      14.47711265        1        0
S      149.71024090     -43.87759078      11.35000000        2        0
Mo     145.97572672     -43.80465166      12.91355632        0        0
S      146.91154798     -42.22235428      14.47711265        1        0
S      146.91154798     -42.22235428      11.35000000        2        0
Mo     143.17703380     -42.14941516      12.91355632        0        0
S      144.11285507     -40.56711778      14.47711265        1        0
S      144.11285507     -40.56711778      11.35000000        2        0
Mo     140.37834089     -40.49417866      12.91355632        0        0
S      141.31416216     -38.91188128      14.47711265        1        0
S      141.31416216     -38.91188128      11.35000000        2        0
Mo     137.57964798     -38.83894216      12.91355632        0        0
S      138.51546924     -37.25664478      14.47711265        1        0
S      138.51546924     -37.25664478      11.35000000        2        0
Mo     134.78095506     -37.18370566      12.91355632        0        0
S      135.71677633     -35.60140828      14.47711265        1        0
S      135.71677633     -35.60140828      11.35000000        2        0
Mo     131.98226215     -35.52846916      12.91355632        0        0
S      132.91808342     -33.94617178      14.47711265        1        0
S      132.91808342     -33.94617178      11.35000000        2        0
Mo     129.18356924     -33.87323266      12.91355632        0        0
S      130.11939050     -32.29093528      14.47711265        1        0
S      130.11939050     -32.29093528      11.35000000        2        0
Mo     126.38487632     -32.21799616      12.91355632        0        0
S      127.32069759     -30.63569879      14.47711265        1        0
S      127.32069759     -30.63569879      11.35000000        2        0
Mo     123.58618341     -30.56275966      12.91355632        0        0
S      124.52200468     -28.98046229      14.47711265        1        0
S      124.52200468     -28.98046229      11.35000000        2        0
Mo     120.78749050     -28.90752316      12.91355632        0        0
S      121.72331176     -27.32522579      14.47711265        1        0
S      121.72331176     -27.32522579      11.35000000        2        0
Mo     117.98879758     -27.25228666      12.91355632        0        0
S      118.92461885     -25.66998929      14.47711265        1        0
S      118.92461885     -25.66998929      11.35000000        2        0
Mo     115.19010467     -25.59705016      12.91355632        0        0
S      116.12592594     -24.01475279      14.47711265        1        0
S      116.12592594     -24.01475279      11.35000000        2        0
Mo     112.39141176     -23.94181366      12.91355632        0        0
S      113.32723302     -22.35951629      14.47711265        1        0
S      113.32723302     -22.35951629      11.35000000        2        0
Mo     109.59271884     -22.28657716      12.91355632        0        0
S      110.52854011     -20.70427979      14.47711265        1        0
S      110.52854011     -20.70427979      11.35000000        2        0
Mo     106.79402593     -20.63134066      12.91355632        0        0
S      107.72984720     -19.04904329      14.47711265        1        0
S      107.72984720     -19.04904329      11.35000000        2        0
Mo     103.99533302     -18.97610416      12.91355632        0        0
S      104.93115428     -17.39380679      14.47711265        1        0
S      104.93115428     -17.39380679      11.35000000        2        0
Mo     101.19664010     -17.32086766      12.91355632        0        0
S      102.13246137     -15.73857029      14.47711265        1        0
S      102.13246137     -15.73857029      11.35000000        2        0
Mo      98.39794719     -15.66563116      12.91355632        0        0
S       99.33376846     -14.08333379      14.47711265        1        0
S       99.33376846     -14.08333379      11.35000000        2        0
Mo      95.59925428     -14.01039466      12.91355632        0        0
S       96.53507554     -12.42809729      14.47711265        1        0
S       96.53507554     -12.42809729      11.35000000        2        0
Mo      92.80056136     -12.35515816      12.91355632        0        0
S       93.73638263     -10.77286079      14.47711265        1        0
S       93.73638263     -10.77286079      11.35000000        2        0
Mo      90.00186845     -10.69992166      12.91355632        0        0
S       90.93768972      -9.11762429      14.47711265        1        0
S       90.93768972      -9.11762429      11.35000000        2        0
Mo      87.20317554      -9.04468516      12.91355632        0        0
S       88.13899680      -7.46238779      14.47711265        1        0
S       88.13899680      -7.46238779      11.35000000        2        0
Mo      84.40448262      -7.38944866      12.91355632        0        0
S       85.34030389      -5.80715129      14.47711265        1        0
S       85.34030389      -5.80715129      11.35000000        2        0
Mo      81.60578971      -5.73421216      12.91355632        0        0
S       82.54161097      -4.15191479      14.47711265        1        0
S       82.54161097      -4.15191479      11.35000000        2        0
Mo      78.80709679      -4.07897566      12.91355632        0        0
S       79.74291806      -2.49667829      14.47711265        1        0
S       79.74291806      -2.49667829      11.35000000        2        0
Mo      76.00840388      -2.42373916      12.91355632        0        0
S       76.94422515      -0.84144179      14.47711265        1        0
S       76.94422515      -0.84144179      11.35000000        2        0
Mo     187.99025082     -65.38184174      12.91355632        0        0
S      188.92607209     -63.79954437      14.47711265        1        0
S      188.92607209     -63.79954437      11.35000000        2        0
Mo     185.19155791     -63.72660524      12.91355632        0        0
S      186.12737917     -62.14430787      14.47711265        1        0
S      186.12737917     -62.14430787      11.35000000        2        0
Mo     182.39286499     -62.07136874      12.91355632        0        0
S      183.32868626     -60.48907137      14.47711265        1        0
S      183.32868626     -60.48907137      11.35000000        2        0
Mo     179.59417208     -60.41613224      12.91355632        0        0
S      180.52999335     -58.83383487      14.47711265        1        0
S      180.52999335     -58.83383487      11.35000000        2        0
Mo     176.79547917     -58.76089574      12.91355632        0        0
S      177.73130043     -57.17859837      14.47711265        1        0
S      177.73130043     -57.17859837      11.35000000        2        0
Mo     173.99678625     -57.10565924      12.91355632        0        0
S      174.93260752     -55.52336187      14.47711265        1        0
S      174.93260752     -55.52336187      11.35000000        2        0
Mo     171.19809334     -55.45042274      12.91355632        0        0
S      172.13391461     -53.86812537      14.47711265        1        0
S      172.13391461     -53.86812537      11.35000000        2        0
Mo     168.39940043     -53.79518624      12.91355632        0        0
S      169.33522169     -52.21288887      14.47711265        1        0
S      169.33522169     -52.21288887      11.35000000        2        0
Mo     165.60070751     -52.13994974      12.91355632        0        0
S      166.53652878     -50.55765237      14.47711265        1        0
S      166.53652878     -50.55765237      11.35000000        2        0
Mo     162.80201460     -50.48471324      12.91355632        0        0
S      163.73783587     -48.90241587      14.47711265        1        0
S      163.73783587     -48.90241587      11.35000000        2        0
Mo     160.00332169     -48.82947674      12.91355632        0        0
S      160.93914295     -47.24717937      14.47711265        1        0
S      160.93914295     -47.24717937      11.35000000        2        0
Mo     157.20462877     -47.17424024      12.91355632        0        0
S      158.14045004     -45.59194287      14.47711265        1        0
S      158.14045004     -45.59194287      11.35000000        2        0
Mo     154.40593586     -45.51900374      12.91355632        0        0
S      155.34175713     -43.93670637      14.47711265        1        0
S      155.34175713     -43.93670637      11.35000000        2        0
Mo     151.60724295     -43.86376725      12.91355632        0        0
S      152.54306421     -42.28146987      14.47711265        1        0
S      152.54306421     -42.28146987      11.35000000        2        0
Mo     148.80855003     -42.20853075      12.91355632        0        0
S      149.74437130     -40.62623337      14.47711265        1        0
S      149.74437130     -40.62623337      11.35000000        2        0
Mo     146.00985712     -40.55329425      12.91355632        0        0
S      146.94567839     -38.97099687      14.47711265        1        0
S      146.94567839     -38.97099687      11.35000000        2        0
Mo     143.21116421     -38.89805775      12.91355632        0        0
S      144.14698547     -37.31576037      14.47711265        1        0
S      144.14698547     -37.31576037      11.35000000        2        0
Mo     140.41247129     -37.24282125      12.91355632        0        0
S      141.34829256     -35.66052387      14.47711265        1        0
S      141.34829256     -35.66052387      11.35000000        2        0
Mo     137.61377838     -35.58758475      12.91355632        0        0
S      138.54959965     -34.00528737      14.47711265        1        0
S      138.54959965     -34.00528737      11.35000000        2        0
Mo     134.81508547     -33.93234825      12.91355632        0        0
S      135.75090673     -32.35005087      14.47711265        1        0
S      135.75090673     -32.35005087      11.35000000        2        0
Mo     132.01639255     -32.27711175      12.91355632        0        0
S      132.95221382     -30.69481437      14.47711265        1        0
S      132.95221382     -30.69481437      11.35000000        2        0
Mo     129.21769964     -30.62187525      12.91355632        0        0
S      130.15352090     -29.03957787      14.47711265        1        0
S      130.15352090     -29.03957787      11.35000000        2        0
Mo     126.41900672     -28.96663875      12.91355632        0        0
S      127.35482799     -27.38434137      14.47711265        1        0
S      127.35482799     -27.38434137      11.35000000        2        0
Mo     123.62031381     -27.31140225      12.91355632        0        0
S      124.55613508     -25.72910487      14.47711265        1        0
S      124.55613508     -25.72910487      11.35000000        2        0
Mo     120.82162090     -25.65616575      12.91355632        0        0
S      121.75744216     -24.07386838      14.47711265        1        0
S      121.75744216     -24.07386838      11.35000000        2        0
Mo     118.02292798     -24.00092925      12.91355632        0        0
S      118.95874925     -22.41863188      14.47711265        1        0
S      118.95874925     -22.41863188      11.35000000        2        0
Mo     115.22423507     -22.34569275      12.91355632        0        0
S      116.16005634     -20.76339538      14.47711265        1        0
S      116.16005634     -20.76339538      11.35000000        2        0
Mo     112.42554216     -20.69045625      12.91355632        0        0
S      113.36136342     -19.10815888      14.47711265        1        0
S      113.36136342     -19.10815888      11.35000000        2        0
Mo     109.62684924     -19.03521975      12.91355632        0        0
S      110.56267051     -17.45292238      14.47711265        1        0
S      110.56267051     -17.45292238      11.35000000        2        0
Mo     106.82815633     -17.37998325      12.91355632        0        0
S      107.76397760     -15.79768588      14.47711265        1        0
S      107.76397760     -15.79768588      11.35000000        2        0
Mo     104.02946342     -15.72474675      12.91355632        0        0
S      104.96528468     -14.14244938      14.47711265        1        0
S      104.96528468     -14.14244938      11.35000000        2        0
Mo     101.23077050     -14.06951025      12.91355632        0        0
S      102.16659177     -12.48721288      14.47711265        1        0
S      102.16659177     -12.48721288      11.35000000        2        0
Mo      98.43207759     -12.41427375      12.91355632        0        0
S       99.36789886     -10.83197638      14.47711265        1        0
S       99.36789886     -10.83197638      11.35000000        2        0
Mo      95.63338468     -10.75903725      12.91355632        0        0
S       96.56920594      -9.17673988      14.47711265        1        0
S       96.56920594      -9.17673988      11.35000000        2        0
Mo      92.83469176      -9.10380075      12.91355632        0        0
S       93.77051303      -7.52150338      14.47711265        1        0
S       93.77051303      -7.52150338      11.35000000        2        0
Mo      90.03599885      -7.44856425      12.91355632        0        0
S       90.97182012      -5.86626688      14.47711265        1        0
S       90.97182012      -5.86626688      11.35000000        2        0
Mo      87.23730594      -5.79332775      12.91355632        0        0
S       88.17312720      -4.21103038      14.47711265        1        0
S       88.17312720      -4.21103038      11.35000000        2        0
Mo      84.43861302      -4.13809125      12.91355632        0        0
S       85.37443429      -2.55579388      14.47711265        1        0
S       85.37443429      -2.55579388      11.35000000        2        0
Mo      81.63992011      -2.48285475      12.91355632        0        0
S       82.57574138      -0.90055738      14.47711265        1        0
S       82.57574138      -0.90055738      11.35000000        2        0
Mo     185.22568831     -60.47524783      12.91355632        0        0
S      186.16150958     -58.89295046      14.47711265        1        0
S      186.16150958     -58.89295046      11.35000000        2        0
Mo     182.42699540     -58.82001133      12.91355632        0        0
S      183.36281666     -57.23771396      14.47711265        1        0
S      183.36281666     -57.23771396      11.35000000        2        0
Mo     179.62830248     -57.16477483      12.91355632        0        0
S      180.56412375     -55.58247746      14.47711265        1        0
S      180.56412375     -55.58247746      11.35000000        2        0
Mo     176.82960957     -55.50953833      12.91355632        0        0
S      177.76543083     -53.92724096      14.47711265        1        0
S      177.76543083     -53.92724096      11.35000000        2        0
Mo     174.03091666     -53.85430183      12.91355632        0        0
S      174.96673792     -52.27200446      14.47711265        1        0
S      174.96673792     -52.27200446      11.35000000        2        0
Mo     171.23222374     -52.19906533      12.91355632        0        0
S      172.16804501     -50.61676796      14.47711265        1        0
S      172.16804501     -50.61676796      11.35000000        2        0
Mo     168.43353083     -50.54382883      12.91355632        0        0
S      169.36935209     -48.96153146      14.47711265        1        0
S      169.36935209     -48.96153146      11.35000000        2        0
Mo     165.63483791     -48.88859233      12.91355632        0        0
S      166.57065918     -47.30629496      14.47711265        1        0
S      166.57065918     -47.30629496      11.35000000        2        0
Mo     162.83614500     -47.23335583      12.91355632        0        0
S      163.77196627     -45.65105846      14.47711265        1        0
S      163.77196627     -45.65105846      11.35000000        2        0
Mo     160.03745209     -45.57811933      12.91355632        0        0
S      160.97327335     -43.99582196      14.47711265        1        0
S      160.97327335     -43.99582196      11.35000000        2        0
Mo     157.23875917     -43.92288283      12.91355632        0        0
S      158.17458044     -42.34058546      14.47711265        1        0
S      158.17458044     -42.34058546      11.35000000        2        0
Mo     154.44006626     -42.26764633      12.91355632        0        0
S      155.37588753     -40.68534896      14.47711265        1        0
S      155.37588753     -40.68534896      11.35000000        2        0
Mo     151.64137335     -40.61240983      12.91355632        0        0
S      152.57719461     -39.03011246      14.47711265        1        0
S      152.57719461     -39.03011246      11.35000000        2        0
Mo     148.84268043     -38.95717333      12.91355632        0        0
S      149.77850170     -37.37487596      14.47711265        1        0
S      149.77850170     -37.37487596      11.35000000        2        0
Mo     146.04398752     -37.30193684      12.91355632        0        0
S      146.97980879     -35.71963946      14.47711265        1        0
S      146.97980879     -35.71963946      11.35000000        2        0
Mo     143.24529461     -35.64670034      12.91355632        0        0
S      144.18111587     -34.06440296      14.47711265        1        0
S      144.18111587     -34.06440296      11.35000000        2        0
Mo     140.44660169     -33.99146384      12.91355632        0        0
S      141.38242296     -32.40916646      14.47711265        1        0
S      141.38242296     -32.40916646      11.35000000        2        0
Mo     137.64790878     -32.33622734      12.91355632        0        0
S      138.58373005     -30.75392996      14.47711265        1        0
S      138.58373005     -30.75392996      11.35000000        2        0
Mo     134.84921587     -30.68099084      12.91355632        0        0
S      135.78503713     -29.09869346      14.47711265        1        0
S      135.78503713     -29.09869346      11.35000000        2        0
Mo     132.05052295     -29.02575434      12.91355632        0        0
S      132.98634422     -27.44345696      14.47711265        1        0
S      132.98634422     -27.44345696      11.35000000        2        0
Mo     129.25183004     -27.37051784      12.91355632        0        0
S      130.18765131     -25.78822046      14.47711265        1        0
S      130.18765131     -25.78822046      11.35000000        2        0
Mo     126.45313713     -25.71528134      12.91355632        0        0
S      127.38895839     -24.13298396      14.47711265        1        0
S      127.38895839     -24.13298396      11.35000000        2        0
Mo     123.65444421     -24.06004484      12.91355632        0        0
S      124.59026548     -22.47774746      14.47711265        1        0
S      124.59026548     -22.47774746      11.35000000        2        0
Mo     120.85575130     -22.40480834      12.91355632        0        0
S      121.79157257     -20.82251096      14.47711265        1        0
S      121.79157257     -20.82251096      11.35000000        2        0
Mo     118.05705839     -20.74957184      12.91355632        0        0
S      118.99287965     -19.16727446      14.47711265        1        0
S      118.99287965     -19.16727446      11.35000000        2        0
Mo     115.25836547     -19.09433534      12.91355632        0        0
S      116.19418674     -17.51203797      14.47711265        1        0
S      116.19418674     -17.51203797      11.35000000        2        0
Mo     112.45967256     -17.43909884      12.91355632        0        0
S      113.39549383     -15.85680147      14.47711265        1        0
S      113.39549383     -15.85680147      11.35000000        2        0
Mo     109.66097965     -15.78386234      12.91355632        0        0
S      110.59680091     -14.20156497      14.47711265        1        0
S      110.59680091     -14.20156497      11.35000000        2        0
Mo     106.86228673     -14.12862584      12.91355632        0        0
S      107.79810800     -12.54632847      14.47711265        1        0
S      107.79810800     -12.54632847      11.35000000        2        0
Mo     104.06359382     -12.47338934      12.91355632        0        0
S      104.99941509     -10.89109197      14.47711265        1        0
S      104.99941509     -10.89109197      11.35000000        2        0
Mo     101.26490091     -10.81815284      12.91355632        0        0
S      102.20072217      -9.23585547      14.47711265        1        0
S      102.20072217      -9.23585547      11.35000000        2        0
Mo      98.46620799      -9.16291634      12.91355632        0        0
S       99.40202926      -7.58061897      14.47711265        1        0
S       99.40202926      -7.58061897      11.35000000        2        0
Mo      95.66751508      -7.50767984      12.91355632        0        0
S       96.60333634      -5.92538247      14.47711265        1        0
S       96.60333634      -5.92538247      11.35000000        2        0
Mo      92.86882216      -5.85244334      12.91355632        0        0
S       93.80464343      -4.27014597      14.47711265        1        0
S       93.80464343      -4.27014597      11.35000000        2        0
Mo      90.07012925      -4.19720684      12.91355632        0        0
S       91.00595052      -2.61490947      14.47711265        1        0
S       91.00595052      -2.61490947      11.35000000        2        0
Mo      87.27143634      -2.54197034      12.91355632        0        0
S       88.20725760      -0.95967297      14.47711265        1        0
S       88.20725760      -0.95967297      11.35000000        2        0
Mo     182.46112580     -55.56865392      12.91355632        0        0
S      183.39694706     -53.98635655      14.47711265        1        0
S      183.39694706     -53.98635655      11.35000000        2        0
Mo     179.66243288     -53.91341742      12.91355632        0        0
S      180.59825415     -52.33112005      14.47711265        1        0
S      180.59825415     -52.33112005      11.35000000        2        0
Mo     176.86373997     -52.25818092      12.91355632        0        0
S      177.79956124     -50.67588355      14.47711265        1        0
S      177.79956124     -50.67588355      11.35000000        2        0
Mo     174.06504706     -50.60294442      12.91355632        0        0
S      175.00086832     -49.02064705      14.47711265        1        0
S      175.00086832     -49.02064705      11.35000000        2        0
Mo     171.26635414     -48.94770792      12.91355632        0        0
S      172.20217541     -47.36541055      14.47711265        1        0
S      172.20217541     -47.36541055      11.35000000        2        0
Mo     168.46766123     -47.29247142      12.91355632        0        0
S      169.40348250     -45.71017405      14.47711265        1        0
S      169.40348250     -45.71017405      11.35000000        2        0
Mo     165.66896832     -45.63723492      12.91355632        0        0
S      166.60478958     -44.05493755      14.47711265        1        0
S      166.60478958     -44.05493755      11.35000000        2        0
Mo     162.87027540     -43.98199842      12.91355632        0        0
S      163.80609667     -42.39970105      14.47711265        1        0
S      163.80609667     -42.39970105      11.35000000        2        0
Mo     160.07158249     -42.32676192      12.91355632        0        0
S      161.00740376     -40.74446455      14.47711265        1        0
S      161.00740376     -40.74446455      11.35000000        2        0
Mo     157.27288958     -40.67152542      12.91355632        0        0
S      158.20871084     -39.08922805      14.47711265        1        0
S      158.20871084     -39.08922805      11.35000000        2        0
Mo     154.47419666     -39.01628892      12.91355632        0        0
S      155.41001793     -37.43399155      14.47711265        1        0
S      155.41001793     -37.43399155      11.35000000        2        0
Mo     151.67550375     -37.36105242      12.91355632        0        0
S      152.61132502     -35.77875505      14.47711265        1        0
S      152.61132502     -35.77875505      11.35000000        2        0
Mo     148.87681084     -35.70581592      12.91355632        0        0
S      149.81263210     -34.12351855      14.47711265        1        0
S      149.81263210     -34.12351855      11.35000000        2        0
Mo     146.07811792     -34.05057942      12.91355632        0        0
S      147.01393919     -32.46828205      14.47711265        1        0
S      147.01393919     -32.46828205      11.35000000        2        0
Mo     143.27942501     -32.39534292      12.91355632        0        0
S      144.21524627     -30.81304555      14.47711265        1        0
S      144.21524627     -30.81304555      11.35000000        2        0
Mo     140.48073209     -30.74010643      12.91355632        0        0
S      141.41655336     -29.15780905      14.47711265        1        0
S      141.41655336     -29.15780905      11.35000000        2        0
Mo     137.68203918     -29.08486993      12.91355632        0        0
S      138.61786045     -27.50257255      14.47711265        1        0
S      138.61786045     -27.50257255      11.35000000        2        0
Mo     134.88334627     -27.42963343      12.91355632        0        0
S      135.81916753     -25.84733605      14.47711265        1        0
S      135.81916753     -25.84733605      11.35000000        2        0
Mo     132.08465335     -25.77439693      12.91355632        0        0
S      133.02047462     -24.19209955      14.47711265        1        0
S      133.02047462     -24.19209955      11.35000000        2        0
Mo     129.28596044     -24.11916043      12.91355632        0        0
S      130.22178171     -22.53686305      14.47711265        1        0
S      130.22178171     -22.53686305      11.35000000        2        0
Mo     126.48726753     -22.46392393      12.91355632        0        0
S      127.42308879     -20.88162655      14.47711265        1        0
S      127.42308879     -20.88162655      11.35000000        2        0
Mo     123.68857461     -20.80868743      12.91355632        0        0
S      124.62439588     -19.22639005      14.47711265        1        0
S      124.62439588     -19.22639005      11.35000000        2        0
Mo     120.88988170     -19.15345093      12.91355632        0        0
S      121.82570297     -17.57115355      14.47711265        1        0
S      121.82570297     -17.57115355      11.35000000        2        0
Mo     118.09118879     -17.49821443      12.91355632        0        0
S      119.02701005     -15.91591705      14.47711265        1        0
S      119.02701005     -15.91591705      11.35000000        2        0
Mo     115.29249587     -15.84297793      12.91355632        0        0
S      116.22831714     -14.26068055      14.47711265        1        0
S      116.22831714     -14.26068055      11.35000000        2        0
Mo     112.49380296     -14.18774143      12.91355632        0        0
S      113.42962423     -12.60544405      14.47711265        1        0
S      113.42962423     -12.60544405      11.35000000        2        0
Mo     109.69511005     -12.53250493      12.91355632        0        0
S      110.63093131     -10.95020756      14.47711265        1        0
S      110.63093131     -10.95020756      11.35000000        2        0
Mo     106.89641713     -10.87726843      12.91355632        0        0
S      107.83223840      -9.29497106      14.47711265        1        0
S      107.83223840      -9.29497106      11.35000000        2        0
Mo     104.09772422      -9.22203193      12.91355632        0        0
S      105.03354549      -7.63973456      14.47711265        1        0
S      105.03354549      -7.63973456      11.35000000        2        0
Mo     101.29903131      -7.56679543      12.91355632        0        0
S      102.23485257      -5.98449806      14.47711265        1        0
S      102.23485257      -5.98449806      11.35000000        2        0
Mo      98.50033839      -5.91155893      12.91355632        0        0
S       99.43615966      -4.32926156      14.47711265        1        0
S       99.43615966      -4.32926156      11.35000000        2        0
Mo      95.70164548      -4.25632243      12.91355632        0        0
S       96.63746675      -2.67402506      14.47711265        1        0
S       96.63746675      -2.67402506      11.35000000        2        0
Mo      92.90295257      -2.60108593      12.91355632        0        0
S       93.83877383      -1.01878856      14.47711265        1        0
S       93.83877383      -1.01878856      11.35000000        2        0
Mo     179.69656328     -50.66206001      12.91355632        0        0
S      180.63238455     -49.07976264      14.47711265        1        0
S      180.63238455     -49.07976264      11.35000000        2        0
Mo     176.89787037     -49.00682351      12.91355632        0        0
S      177.83369164     -47.42452614      14.47711265        1        0
S      177.83369164     -47.42452614      11.35000000        2        0
Mo     174.09917746     -47.35158701      12.91355632        0        0
S      175.03499872     -45.76928964      14.47711265        1        0
S      175.03499872     -45.76928964      11.35000000        2        0
Mo     171.30048454     -45.69635051      12.91355632        0        0
S      172.23630581     -44.11405314      14.47711265        1        0
S      172.23630581     -44.11405314      11.35000000        2        0
Mo     168.50179163     -44.04111401      12.91355632        0        0
S      169.43761290     -42.45881664      14.47711265        1        0
S      169.43761290     -42.45881664      11.35000000        2        0
Mo     165.70309872     -42.38587751      12.91355632        0        0
S      166.63891998     -40.80358014      14.47711265        1        0
S      166.63891998     -40.80358014      11.35000000        2        0
Mo     162.90440580     -40.73064101      12.91355632        0        0
S      163.84022707     -39.14834364      14.47711265        1        0
S      163.84022707     -39.14834364      11.35000000        2        0
Mo     160.10571289     -39.07540451      12.91355632        0        0
S      161.04153416     -37.49310714      14.47711265        1        0
S      161.04153416     -37.49310714      11.35000000        2        0
Mo     157.30701998     -37.42016801      12.91355632        0        0
S      158.24284124     -35.83787064      14.47711265        1        0
S      158.24284124     -35.83787064      11.35000000        2        0
Mo     154.50832706     -35.76493151      12.91355632        0        0
S      155.44414833     -34.18263414      14.47711265        1        0
S      155.44414833     -34.18263414      11.35000000        2        0
Mo     151.70963415     -34.10969501      12.91355632        0        0
S      152.64545542     -32.52739764      14.47711265        1        0
S      152.64545542     -32.52739764      11.35000000        2        0
Mo     148.91094124     -32.45445851      12.91355632        0        0
S      149.84676250     -30.87216114      14.47711265        1        0
S      149.84676250     -30.87216114      11.35000000        2        0
Mo     146.11224832     -30.79922201      12.91355632        0        0
S      147.04806959     -29.21692464      14.47711265        1        0
S      147.04806959     -29.21692464      11.35000000        2        0
Mo     143.31355541     -29.14398551      12.91355632        0        0
S      144.24937668     -27.56168814      14.47711265        1        0
S      144.24937668     -27.56168814      11.35000000        2        0
Mo     140.51486250     -27.48874901      12.91355632        0        0
S      141.45068376     -25.90645164      14.47711265        1        0
S      141.45068376     -25.90645164      11.35000000        2        0
Mo     137.71616958     -25.83351251      12.91355632        0        0
S      138.65199085     -24.25121514      14.47711265        1        0
S      138.65199085     -24.25121514      11.35000000        2        0
Mo     134.91747667     -24.17827602      12.91355632        0        0
S      135.85329794     -22.59597864      14.47711265        1        0
S      135.85329794     -22.59597864      11.35000000        2        0
Mo     132.11878376     -22.52303952      12.91355632        0        0
S      133.05460502     -20.94074214      14.47711265        1        0
S      133.05460502     -20.94074214      11.35000000        2        0
Mo     129.32009084     -20.86780302      12.91355632        0        0
S      130.25591211     -19.28550564      14.47711265        1        0
S      130.25591211     -19.28550564      11.35000000        2        0
Mo     126.52139793     -19.21256652      12.91355632        0        0
S      127.45721920     -17.63026914      14.47711265        1        0
S      127.45721920     -17.63026914      11.35000000        2        0
Mo     123.72270502     -17.55733002      12.91355632        0        0
S      124.65852628     -15.97503264      14.47711265        1        0
S      124.65852628     -15.97503264      11.35000000        2        0
Mo     120.92401210     -15.90209352      12.91355632        0        0
S      121.85983337     -14.31979614      14.47711265        1        0
S      121.85983337     -14.31979614      11.35000000        2        0
Mo     118.12531919     -14.24685702      12.91355632        0        0
S      119.06114046     -12.66455964      14.47711265        1        0
S      119.06114046     -12.66455964      11.35000000        2        0
Mo     115.32662628     -12.59162052      12.91355632        0        0
S      116.26244754     -11.00932314      14.47711265        1        0
S      116.26244754     -11.00932314      11.35000000        2        0
Mo     112.52793336     -10.93638402      12.91355632        0        0
S      113.46375463      -9.35408664      14.47711265        1        0
S      113.46375463      -9.35408664      11.35000000        2        0
Mo     109.72924045      -9.28114752      12.91355632        0        0
S      110.66506171      -7.69885014      14.47711265        1        0
S      110.66506171      -7.69885014      11.35000000        2        0
Mo     106.93054753      -7.62591102      12.91355632        0        0
S      107.86636880      -6.04361364      14.47711265        1        0
S      107.86636880      -6.04361364      11.35000000        2        0
Mo     104.13185462      -5.97067452      12.91355632        0        0
S      105.06767589      -4.38837715      14.47711265        1        0
S      105.06767589      -4.38837715      11.35000000        2        0
Mo     101.33316171      -4.31543802      12.91355632        0        0
S      102.26898297      -2.73314065      14.47711265        1        0
S      102.26898297      -2.73314065      11.35000000        2        0
Mo      98.53446879      -2.66020152      12.91355632        0        0
S       99.47029006      -1.07790415      14.47711265        1        0
S       99.47029006      -1.07790415      11.35000000        2        0
Mo     176.93200077     -45.75546610      12.91355632        0        0
S      177.86782204     -44.17316873      14.47711265        1        0
S      177.86782204     -44.17316873      11.35000000        2        0
Mo     174.13330786     -44.10022960      12.91355632        0        0
S      175.06912913     -42.51793223      14.47711265        1        0
S      175.06912913     -42.51793223      11.35000000        2        0
Mo     171.33461495     -42.44499310      12.91355632        0        0
S      172.27043621     -40.86269573      14.47711265        1        0
S      172.27043621     -40.86269573      11.35000000        2        0
Mo     168.53592203     -40.78975660      12.91355632        0        0
S      169.47174330     -39.20745923      14.47711265        1        0
S      169.47174330     -39.20745923      11.35000000        2        0
Mo     165.73722912     -39.13452010      12.91355632        0        0
S      166.67305039     -37.55222273      14.47711265        1        0
S      166.67305039     -37.55222273      11.35000000        2        0
Mo     162.93853621     -37.47928360      12.91355632        0        0
S      163.87435747     -35.89698623      14.47711265        1        0
S      163.87435747     -35.89698623      11.35000000        2        0
Mo     160.13984329     -35.82404710      12.91355632        0        0
S      161.07566456     -34.24174973      14.47711265        1        0
S      161.07566456     -34.24174973      11.35000000        2        0
Mo     157.34115038     -34.16881060      12.91355632        0        0
S      158.27697164     -32.58651323      14.47711265        1        0
S      158.27697164     -32.58651323      11.35000000        2        0
Mo     154.54245747     -32.51357410      12.91355632        0        0
S      155.47827873     -30.93127673      14.47711265        1        0
S      155.47827873     -30.93127673      11.35000000        2        0
Mo     151.74376455     -30.85833760      12.91355632        0        0
S      152.67958582     -29.27604023      14.47711265        1        0
S      152.67958582     -29.27604023      11.35000000        2        0
Mo     148.94507164     -29.20310110      12.91355632        0        0
S      149.88089290     -27.62080373      14.47711265        1        0
S      149.88089290     -27.62080373      11.35000000        2        0
Mo     146.14637872     -27.54786460      12.91355632        0        0
S      147.08219999     -25.96556723      14.47711265        1        0
S      147.08219999     -25.96556723      11.35000000        2        0
Mo     143.34768581     -25.89262810      12.91355632        0        0
S      144.28350708     -24.31033073      14.47711265        1        0
S      144.28350708     -24.31033073      11.35000000        2        0
Mo     140.54899290     -24.23739160      12.91355632        0        0
S      141.48481416     -22.65509423      14.47711265        1        0
S      141.48481416     -22.65509423      11.35000000        2        0
Mo     137.75029998     -22.58215510      12.91355632        0        0
S      138.68612125     -20.99985773      14.47711265        1        0
S      138.68612125     -20.99985773      11.35000000        2        0
Mo     134.95160707     -20.92691860      12.91355632        0        0
S      135.88742834     -19.34462123      14.47711265        1        0
S      135.88742834     -19.34462123      11.35000000        2        0
Mo     132.15291416     -19.27168211      12.91355632        0        0
S      133.08873542     -17.68938473      14.47711265        1        0
S      133.08873542     -17.68938473      11.35000000        2        0
Mo     129.35422124     -17.61644561      12.91355632        0        0
S      130.29004251     -16.03414823      14.47711265        1        0
S      130.29004251     -16.03414823      11.35000000        2        0
Mo     126.55552833     -15.96120911      12.91355632        0        0
S      127.49134960     -14.37891173      14.47711265        1        0
S      127.49134960     -14.37891173      11.35000000        2        0
Mo     123.75683542     -14.30597261      12.91355632        0        0
S      124.69265668     -12.72367523      14.47711265        1        0
S      124.69265668     -12.72367523      11.35000000        2        0
Mo     120.95814250     -12.65073611      12.91355632        0        0
S      121.89396377     -11.06843873      14.47711265        1        0
S      121.89396377     -11.06843873      11.35000000        2        0
Mo     118.15944959     -10.99549961      12.91355632        0        0
S      119.09527086      -9.41320223      14.47711265        1        0
S      119.09527086      -9.41320223      11.35000000        2        0
Mo     115.36075668      -9.34026311      12.91355632        0        0
S      116.29657794      -7.75796573      14.47711265        1        0
S      116.29657794      -7.75796573      11.35000000        2        0
Mo     112.56206376      -7.68502661      12.91355632        0        0
S      113.49788503      -6.10272923      14.47711265        1        0
S      113.49788503      -6.10272923      11.35000000        2        0
Mo     109.76337085      -6.02979011      12.91355632        0        0
S      110.69919212      -4.44749273      14.47711265        1        0
S      110.69919212      -4.44749273      11.35000000        2        0
Mo     106.96467794      -4.37455361      12.91355632        0        0
S      107.90049920      -2.79225623      14.47711265        1        0
S      107.90049920      -2.79225623      11.35000000        2        0
Mo     104.16598502      -2.71931711      12.91355632        0        0
S      105.10180629      -1.13701973      14.47711265        1        0
S      105.10180629      -1.13701973      11.35000000        2        0
Mo     174.16743826     -40.84887219      12.91355632        0        0
S      175.10325953     -39.26657482      14.47711265        1        0
S      175.10325953     -39.26657482      11.35000000        2        0
Mo     171.36874535     -39.19363569      12.91355632        0        0
S      172.30456661     -37.61133832      14.47711265        1        0
S      172.30456661     -37.61133832      11.35000000        2        0
Mo     168.57005243     -37.53839919      12.91355632        0        0
S      169.50587370     -35.95610182      14.47711265        1        0
S      169.50587370     -35.95610182      11.35000000        2        0
Mo     165.77135952     -35.88316269      12.91355632        0        0
S      166.70718079     -34.30086532      14.47711265        1        0
S      166.70718079     -34.30086532      11.35000000        2        0
Mo     162.97266661     -34.22792619      12.91355632        0        0
S      163.90848787     -32.64562882      14.47711265        1        0
S      163.90848787     -32.64562882      11.35000000        2        0
Mo     160.17397369     -32.57268969      12.91355632        0        0
S      161.10979496     -30.99039232      14.47711265        1        0
S      161.10979496     -30.99039232      11.35000000        2        0
Mo     157.37528078     -30.91745319      12.91355632        0        0
S      158.31110205     -29.33515582      14.47711265        1        0
S      158.31110205     -29.33515582      11.35000000        2        0
Mo     154.57658787     -29.26221669      12.91355632        0        0
S      155.51240913     -27.67991932      14.47711265        1        0
S      155.51240913     -27.67991932      11.35000000        2        0
Mo     151.77789495     -27.60698019      12.91355632        0        0
S      152.71371622     -26.02468282      14.47711265        1        0
S      152.71371622     -26.02468282      11.35000000        2        0
Mo     148.97920204     -25.95174369      12.91355632        0        0
S      149.91502331     -24.36944632      14.47711265        1        0
S      149.91502331     -24.36944632      11.35000000        2        0
Mo     146.18050913     -24.29650719      12.91355632        0        0
S      147.11633039     -22.71420982      14.47711265        1        0
S      147.11633039     -22.71420982      11.35000000        2        0
Mo     143.38181621     -22.64127069      12.91355632        0        0
S      144.31763748     -21.05897332      14.47711265        1        0
S      144.31763748     -21.05897332      11.35000000        2        0
Mo     140.58312330     -20.98603419      12.91355632        0        0
S      141.51894457     -19.40373682      14.47711265        1        0
S      141.51894457     -19.40373682      11.35000000        2        0
Mo     137.78443039     -19.33079769      12.91355632        0        0
S      138.72025165     -17.74850032      14.47711265        1        0
S      138.72025165     -17.74850032      11.35000000        2        0
Mo     134.98573747     -17.67556119      12.91355632        0        0
S      135.92155874     -16.09326382      14.47711265        1        0
S      135.92155874     -16.09326382      11.35000000        2        0
Mo     132.18704456     -16.02032469      12.91355632        0        0
S      133.12286583     -14.43802732      14.47711265        1        0
S      133.12286583     -14.43802732      11.35000000        2        0
Mo     129.38835165     -14.36508819      12.91355632        0        0
S      130.32417291     -12.78279082      14.47711265        1        0
S      130.32417291     -12.78279082      11.35000000        2        0
Mo     126.58965873     -12.70985170      12.91355632        0        0
S      127.52548000     -11.12755432      14.47711265        1        0
S      127.52548000     -11.12755432      11.35000000        2        0
Mo     123.79096582     -11.05461520      12.91355632        0        0
S      124.72678708      -9.47231782      14.47711265        1        0
S      124.72678708      -9.47231782      11.35000000        2        0
Mo     120.99227290      -9.39937870      12.91355632        0        0
S      121.92809417      -7.81708132      14.47711265        1        0
S      121.92809417      -7.81708132      11.35000000        2        0
Mo     118.19357999      -7.74414220      12.91355632        0        0
S      119.12940126      -6.16184482      14.47711265        1        0
S      119.12940126      -6.16184482      11.35000000        2        0
Mo     115.39488708      -6.08890570      12.91355632        0        0
S      116.33070834      -4.50660832      14.47711265        1        0
S      116.33070834      -4.50660832      11.35000000        2        0
Mo     112.59619416      -4.43366920      12.91355632        0        0
S      113.53201543      -2.85137182      14.47711265        1        0
S      113.53201543      -2.85137182      11.35000000        2        0
Mo     109.79750125      -2.77843270      12.91355632        0        0
S      110.73332252      -1.19613532      14.47711265        1        0
S      110.73332252      -1.19613532      11.35000000        2        0
Mo     171.40287575     -35.94227828      12.91355632        0        0
S      172.33869701     -34.35998091      14.47711265        1        0
S      172.33869701     -34.35998091      11.35000000        2        0
Mo     168.60418284     -34.28704178      12.91355632        0        0
S      169.54000410     -32.70474441      14.47711265        1        0
S      169.54000410     -32.70474441      11.35000000        2        0
Mo     165.80548992     -32.63180528      12.91355632        0        0
S      166.74131119     -31.04950791      14.47711265        1        0
S      166.74131119     -31.04950791      11.35000000        2        0
Mo     163.00679701     -30.97656878      12.91355632        0        0
S      163.94261827     -29.39427141      14.47711265        1        0
S      163.94261827     -29.39427141      11.35000000        2        0
Mo     160.20810409     -29.32133228      12.91355632        0        0
S      161.14392536     -27.73903491      14.47711265        1        0
S      161.14392536     -27.73903491      11.35000000        2        0
Mo     157.40941118     -27.66609578      12.91355632        0        0
S      158.34523245     -26.08379841      14.47711265        1        0
S      158.34523245     -26.08379841      11.35000000        2        0
Mo     154.61071827     -26.01085928      12.91355632        0        0
S      155.54653953     -24.42856191      14.47711265        1        0
S      155.54653953     -24.42856191      11.35000000        2        0
Mo     151.81202535     -24.35562278      12.91355632        0        0
S      152.74784662     -22.77332541      14.47711265        1        0
S      152.74784662     -22.77332541      11.35000000        2        0
Mo     149.01333244     -22.70038628      12.91355632        0        0
S      149.94915371     -21.11808891      14.47711265        1        0
S      149.94915371     -21.11808891      11.35000000        2        0
Mo     146.21463953     -21.04514978      12.91355632        0        0
S      147.15046079     -19.46285241      14.47711265        1        0
S      147.15046079     -19.46285241      11.35000000        2        0
Mo     143.41594661     -19.38991328      12.91355632        0        0
S      144.35176788     -17.80761591      14.47711265        1        0
S      144.35176788     -17.80761591      11.35000000        2        0
Mo     140.61725370     -17.73467678      12.91355632        0        0
S      141.55307497     -16.15237941      14.47711265        1        0
S      141.55307497     -16.15237941      11.35000000        2        0
Mo     137.81856079     -16.07944028      12.91355632        0        0
S      138.75438205     -14.49714291      14.47711265        1        0
S      138.75438205     -14.49714291      11.35000000        2        0
Mo     135.01986787     -14.42420378      12.91355632        0        0
S      135.95568914     -12.84190641      14.47711265        1        0
S      135.95568914     -12.84190641      11.35000000        2        0
Mo     132.22117496     -12.76896728      12.91355632        0        0
S      133.15699623     -11.18666991      14.47711265        1        0
S      133.15699623     -11.18666991      11.35000000        2        0
Mo     129.42248205     -11.11373078      12.91355632        0        0
S      130.35830331      -9.53143341      14.47711265        1        0
S      130.35830331      -9.53143341      11.35000000        2        0
Mo     126.62378913      -9.45849428      12.91355632        0        0
S      127.55961040      -7.87619691      14.47711265        1        0
S      127.55961040      -7.87619691      11.35000000        2        0
Mo     123.82509622      -7.80325778      12.91355632        0        0
S      124.76091749      -6.22096041      14.47711265        1        0
S      124.76091749      -6.22096041      11.35000000        2        0
Mo     121.02640331      -6.14802129      12.91355632        0        0
S      121.96222457      -4.56572391      14.47711265        1        0
S      121.96222457      -4.56572391      11.35000000        2        0
Mo     118.22771039      -4.49278479      12.91355632        0        0
S      119.16353166      -2.91048741      14.47711265        1        0
S      119.16353166      -2.91048741      11.35000000        2        0
Mo     115.42901748      -2.83754829      12.91355632        0        0
S      116.36483875      -1.25525091      14.47711265        1        0
S      116.36483875      -1.25525091      11.35000000        2        0
Mo     168.63831324     -31.03568437      12.91355632        0        0
S      169.57413450     -29.45338700      14.47711265        1        0
S      169.57413450     -29.45338700      11.35000000        2        0
Mo     165.83962032     -29.38044787      12.91355632        0        0
S      166.77544159     -27.79815050      14.47711265        1        0
S      166.77544159     -27.79815050      11.35000000        2        0
Mo     163.04092741     -27.72521137      12.91355632        0        0
S      163.97674868     -26.14291400      14.47711265        1        0
S      163.97674868     -26.14291400      11.35000000        2        0
Mo     160.24223450     -26.06997487      12.91355632        0        0
S      161.17805576     -24.48767750      14.47711265        1        0
S      161.17805576     -24.48767750      11.35000000        2        0
Mo     157.44354158     -24.41473837      12.91355632        0        0
S      158.37936285     -22.83244100      14.47711265        1        0
S      158.37936285     -22.83244100      11.35000000        2        0
Mo     154.64484867     -22.75950187      12.91355632        0        0
S      155.58066994     -21.17720450      14.47711265        1        0
S      155.58066994     -21.17720450      11.35000000        2        0
Mo     151.84615576     -21.10426537      12.91355632        0        0
S      152.78197702     -19.52196800      14.47711265        1        0
S      152.78197702     -19.52196800      11.35000000        2        0
Mo     149.04746284     -19.44902887      12.91355632        0        0
S      149.98328411     -17.86673150      14.47711265        1        0
S      149.98328411     -17.86673150      11.35000000        2        0
Mo     146.24876993     -17.79379237      12.91355632        0        0
S      147.18459120     -16.21149500      14.47711265        1        0
S      147.18459120     -16.21149500      11.35000000        2        0
Mo     143.45007702     -16.13855587      12.91355632        0        0
S      144.38589828     -14.55625850      14.47711265        1        0
S      144.38589828     -14.55625850      11.35000000        2        0
Mo     140.65138410     -14.48331937      12.91355632        0        0
S      141.58720537     -12.90102200      14.47711265        1        0
S      141.58720537     -12.90102200      11.35000000        2        0
Mo     137.85269119     -12.82808287      12.91355632        0        0
S      138.78851245     -11.24578550      14.47711265        1        0
S      138.78851245     -11.24578550      11.35000000        2        0
Mo     135.05399827     -11.17284637      12.91355632        0        0
S      135.98981954      -9.59054900      14.47711265        1        0
S      135.98981954      -9.59054900      11.35000000        2        0
Mo     132.25530536      -9.51760987      12.91355632        0        0
S      133.19112663      -7.93531250      14.47711265        1        0
S      133.19112663      -7.93531250      11.35000000        2        0
Mo     129.45661245      -7.86237337      12.91355632        0        0
S      130.39243371      -6.28007600      14.47711265        1        0
S      130.39243371      -6.28007600      11.35000000        2        0
Mo     126.65791953      -6.20713687      12.91355632        0        0
S      127.59374080      -4.62483950      14.47711265        1        0
S      127.59374080      -4.62483950      11.35000000        2        0
Mo     123.85922662      -4.55190037      12.91355632        0        0
S      124.79504789      -2.96960300      14.47711265        1        0
S      124.79504789      -2.96960300      11.35000000        2        0
Mo     121.06053371      -2.89666387      12.91355632        0        0
S      121.99635497      -1.31436650      14.47711265        1        0
S      121.99635497      -1.31436650      11.35000000        2        0
Mo     165.87375072     -26.12909046      12.91355632        0        0
S      166.80957199     -24.54679309      14.47711265        1        0
S      166.80957199     -24.54679309      11.35000000        2        0
Mo     163.07505781     -24.47385396      12.91355632        0        0
S      164.01087908     -22.89155659      14.47711265        1        0
S      164.01087908     -22.89155659      11.35000000        2        0
Mo     160.27636490     -22.81861746      12.91355632        0        0
S      161.21218616     -21.23632009      14.47711265        1        0
S      161.21218616     -21.23632009      11.35000000        2        0
Mo     157.47767198     -21.16338096      12.91355632        0        0
S      158.41349325     -19.58108359      14.47711265        1        0
S      158.41349325     -19.58108359      11.35000000        2        0
Mo     154.67897907     -19.50814446      12.91355632        0        0
S      155.61480034     -17.92584709      14.47711265        1        0
S      155.61480034     -17.92584709      11.35000000        2        0
Mo     151.88028616     -17.85290796      12.91355632        0        0
S      152.81610742     -16.27061059      14.47711265        1        0
S      152.81610742     -16.27061059      11.35000000        2        0
Mo     149.08159324     -16.19767146      12.91355632        0        0
S      150.01741451     -14.61537409      14.47711265        1        0
S      150.01741451     -14.61537409      11.35000000        2        0
Mo     146.28290033     -14.54243496      12.91355632        0        0
S      147.21872160     -12.96013759      14.47711265        1        0
S      147.21872160     -12.96013759      11.35000000        2        0
Mo     143.48420742     -12.88719846      12.91355632        0        0
S      144.42002868     -11.30490109      14.47711265        1        0
S      144.42002868     -11.30490109      11.35000000        2        0
Mo     140.68551450     -11.23196196      12.91355632        0        0
S      141.62133577      -9.64966459      14.47711265        1        0
S      141.62133577      -9.64966459      11.35000000        2        0
Mo     137.88682159      -9.57672546      12.91355632        0        0
S      138.82264286      -7.99442809      14.47711265        1        0
S      138.82264286      -7.99442809      11.35000000        2        0
Mo     135.08812868      -7.92148896      12.91355632        0        0
S      136.02394994      -6.33919159      14.47711265        1        0
S      136.02394994      -6.33919159      11.35000000        2        0
Mo     132.28943576      -6.26625246      12.91355632        0        0
S      133.22525703      -4.68395509      14.47711265        1        0
S      133.22525703      -4.68395509      11.35000000        2        0
Mo     129.49074285      -4.61101596      12.91355632        0        0
S      130.42656412      -3.02871859      14.47711265        1        0
S      130.42656412      -3.02871859      11.35000000        2        0
Mo     126.69204994      -2.95577946      12.91355632        0        0
S      127.62787120      -1.37348209      14.47711265        1        0
S      127.62787120      -1.37348209      11.35000000        2        0
Mo     163.10918821     -21.22249655      12.91355632        0        0
S      164.04500948     -19.64019918      14.47711265        1        0
S      164.04500948     -19.64019918      11.35000000        2        0
Mo     160.31049530     -19.56726005      12.91355632        0        0
S      161.24631657     -17.98496268      14.47711265        1        0
S      161.24631657     -17.98496268      11.35000000        2        0
Mo     157.51180239     -17.91202355      12.91355632        0        0
S      158.44762365     -16.32972618      14.47711265        1        0
S      158.44762365     -16.32972618      11.35000000        2        0
Mo     154.71310947     -16.25678705      12.91355632        0        0
S      155.64893074     -14.67448968      14.47711265        1        0
S      155.64893074     -14.67448968      11.35000000        2        0
Mo     151.91441656     -14.60155055      12.91355632        0        0
S      152.85023782     -13.01925318      14.47711265        1        0
S      152.85023782     -13.01925318      11.35000000        2        0
Mo     149.11572365     -12.94631405      12.91355632        0        0
S      150.05154491     -11.36401668      14.47711265        1        0
S      150.05154491     -11.36401668      11.35000000        2        0
Mo     146.31703073     -11.29107755      12.91355632        0        0
S      147.25285200      -9.70878018      14.47711265        1        0
S      147.25285200      -9.70878018      11.35000000        2        0
Mo     143.51833782      -9.63584105      12.91355632        0        0
S      144.45415908      -8.05354368      14.47711265        1        0
S      144.45415908      -8.05354368      11.35000000        2        0
Mo     140.71964490      -7.98060455      12.91355632        0        0
S      141.65546617      -6.39830718      14.47711265        1        0
S      141.65546617      -6.39830718      11.35000000        2        0
Mo     137.92095199      -6.32536805      12.91355632        0        0
S      138.85677326      -4.74307068      14.47711265        1        0
S      138.85677326      -4.74307068      11.35000000        2        0
Mo     135.12225908      -4.67013155      12.91355632        0        0
S      136.05808034      -3.08783418      14.47711265        1        0
S      136.05808034      -3.08783418      11.35000000        2        0
Mo     132.32356616      -3.01489505      12.91355632        0        0
S      133.25938743      -1.43259768      14.47711265        1        0
S      133.25938743      -1.43259768      11.35000000        2        0
Mo     160.34462570     -16.31590264      12.91355632        0        0
S      161.28044697     -14.73360527      14.47711265        1        0
S      161.28044697     -14.73360527      11.35000000        2        0
Mo     157.54593279     -14.66066614      12.91355632        0        0
S      158.48175405     -13.07836877      14.47711265        1        0
S      158.48175405     -13.07836877      11.35000000        2        0
Mo     154.74723987     -13.00542964      12.91355632        0        0
S      155.68306114     -11.42313227      14.47711265        1        0
S      155.68306114     -11.42313227      11.35000000        2        0
Mo     151.94854696     -11.35019314      12.91355632        0        0
S      152.88436823      -9.76789577      14.47711265        1        0
S      152.88436823      -9.76789577      11.35000000        2        0
Mo     149.14985405      -9.69495664      12.91355632        0        0
S      150.08567531      -8.11265927      14.47711265        1        0
S      150.08567531      -8.11265927      11.35000000        2        0
Mo     146.35116113      -8.03972014      12.91355632        0        0
S      147.28698240      -6.45742277      14.47711265        1        0
S      147.28698240      -6.45742277      11.35000000        2        0
Mo     143.55246822      -6.38448364      12.91355632        0        0
S      144.48828949      -4.80218627      14.47711265        1        0
S      144.48828949      -4.80218627      11.35000000        2        0
Mo     140.75377531      -4.72924714      12.91355632        0        0
S      141.68959657      -3.14694977      14.47711265        1        0
S      141.68959657      -3.14694977      11.35000000        2        0
Mo     137.95508239      -3.07401064      12.91355632        0        0
S      138.89090366      -1.49171327      14.47711265        1        0
S      138.89090366      -1.49171327      11.35000000        2        0
Mo     157.58006319     -11.40930873      12.91355632        0        0
S      158.51588445      -9.82701136      14.47711265        1        0
S      158.51588445      -9.82701136      11.35000000        2        0
Mo     154.78137027      -9.75407223      12.91355632        0        0
S      155.71719154      -8.17177486      14.47711265        1        0
S      155.71719154      -8.17177486      11.35000000        2        0
Mo     151.98267736      -8.09883573      12.91355632        0        0
S      152.91849863      -6.51653836      14.47711265        1        0
S      152.91849863      -6.51653836      11.35000000        2        0
Mo     149.18398445      -6.44359923      12.91355632        0        0
S      150.11980571      -4.86130186      14.47711265        1        0
S      150.11980571      -4.86130186      11.35000000        2        0
Mo     146.38529153      -4.78836273      12.91355632        0        0
S      147.32111280      -3.20606536      14.47711265        1        0
S      147.32111280      -3.20606536      11.35000000        2        0
Mo     143.58659862      -3.13312623      12.91355632        0        0
S      144.52241989      -1.55082886      14.47711265        1        0
S      144.52241989      -1.55082886      11.35000000        2        0
Mo     154.81550068      -6.50271482      12.91355632        0        0
S      155.75132194      -4.92041745      14.47711265        1        0
S      155.75132194      -4.92041745      11.35000000        2        0
Mo     152.01680776      -4.84747832      12.91355632        0        0
S      152.95262903      -3.26518095      14.47711265        1        0
S      152.95262903      -3.26518095      11.35000000        2        0
Mo     149.21811485      -3.19224182      12.91355632        0        0
S      150.15393612      -1.60994445      14.47711265        1        0
S      150.15393612      -1.60994445      11.35000000        2        0
W        2.79869291      -1.53700532      18.85638905        3        1
Se      81.18121743    -134.00080914      20.53566545        4        1
Se      81.18121743    -134.00080914      17.17711265        5        1
W       77.40775034    -134.07415649      18.85638905        3        1
Se      78.34839411    -132.40468823      20.53566545        4        1
Se      78.34839411    -132.40468823      17.17711265        5        1
W      229.45868850    -132.47803557      18.85638905        3        1
Se     230.39933228    -130.80856732      20.53566545        4        1
Se     230.39933228    -130.80856732      17.17711265        5        1
W        8.43020914      -1.47788973      18.85638905        3        1
Se      86.81273366    -133.94169355      20.53566545        4        1
Se      86.81273366    -133.94169355      17.17711265        5        1
W       83.03926657    -134.01504090      18.85638905        3        1
Se      83.97991034    -132.34557264      20.53566545        4        1
Se      83.97991034    -132.34557264      17.17711265        5        1
W       80.20644325    -132.41891999      18.85638905        3        1
Se      81.14708703    -130.74945173      20.53566545        4        1
Se      81.14708703    -130.74945173      17.17711265        5        1
W       77.37361994    -130.82279907      18.85638905        3        1
Se      78.31426371    -129.15333082      20.53566545        4        1
Se      78.31426371    -129.15333082      17.17711265        5        1
W      229.42455810    -129.22667816      18.85638905        3        1
Se      75.48144040    -127.55720991      20.53566545        4        1
Se      75.48144040    -127.55720991      17.17711265        5        1
W      226.59173479    -127.63055725      18.85638905        3        1
Se     227.53237856    -125.96108900      20.53566545        4        1
Se     227.53237856    -125.96108900      17.17711265        5        1
W       14.06172537      -1.41877414      18.85638905        3        1
Se      92.44424988    -133.88257796      20.53566545        4        1
Se      92.44424988    -133.88257796      17.17711265        5        1
W       88.67078279    -133.95592531      18.85638905        3        1
Se      89.61142657    -132.28645705      20.53566545        4        1
Se      89.61142657    -132.28645705      17.17711265        5        1
W       85.83795948    -132.35980440      18.85638905        3        1
Se      86.77860325    -130.69033614      20.53566545        4        1
Se      86.77860325    -130.69033614      17.17711265        5        1
W       83.00513616    -130.76368349      18.85638905        3        1
Se      83.94577994    -129.09421523      20.53566545        4        1
Se      83.94577994    -129.09421523      17.17711265        5        1
W       80.17231285    -129.16756257      18.85638905        3        1
Se      81.11295662    -127.49809432      20.53566545        4        1
Se      81.11295662    -127.49809432      17.17711265        5        1
W       77.33948954    -127.57144166      18.85638905        3        1
Se      78.28013331    -125.90197341      20.53566545        4        1
Se      78.28013331    -125.90197341      17.17711265        5        1
W       74.50666622    -125.97532075      18.85638905        3        1
Se      75.44730999    -124.30585250      20.53566545        4        1
Se      75.44730999    -124.30585250      17.17711265        5        1
W      226.55760438    -124.37919984      18.85638905        3        1
Se      72.61448668    -122.70973159      20.53566545        4        1
Se      72.61448668    -122.70973159      17.17711265        5        1
W      223.72478107    -122.78307893      18.85638905        3        1
Se     224.66542484    -121.11361068      20.53566545        4        1
Se     224.66542484    -121.11361068      17.17711265        5        1
W       19.69324160      -1.35965855      18.85638905        3        1
Se      98.07576611    -133.82346237      20.53566545        4        1
Se      98.07576611    -133.82346237      17.17711265        5        1
W       94.30229902    -133.89680972      18.85638905        3        1
Se      95.24294280    -132.22734146      20.53566545        4        1
Se      95.24294280    -132.22734146      17.17711265        5        1
W       91.46947571    -132.30068881      18.85638905        3        1
Se      92.41011948    -130.63122055      20.53566545        4        1
Se      92.41011948    -130.63122055      17.17711265        5        1
W       88.63665239    -130.70456790      18.85638905        3        1
Se      89.57729617    -129.03509964      20.53566545        4        1
Se      89.57729617    -129.03509964      17.17711265        5        1
W       85.80382908    -129.10844699      18.85638905        3        1
Se      86.74447285    -127.43897873      20.53566545        4        1
Se      86.74447285    -127.43897873      17.17711265        5        1
W       82.97100576    -127.51232608      18.85638905        3        1
Se      83.91164954    -125.84285782      20.53566545        4        1
Se      83.91164954    -125.84285782      17.17711265        5        1
W       80.13818245    -125.91620516      18.85638905        3        1
Se      81.07882622    -124.24673691      20.53566545        4        1
Se      81.07882622    -124.24673691      17.17711265        5        1
W       77.30535913    -124.32008425      18.85638905        3        1
Se      78.24600291    -122.65061600      20.53566545        4        1
Se      78.24600291    -122.65061600      17.17711265        5        1
W       74.47253582    -122.72396334      18.85638905        3        1
Se      75.41317959    -121.05449509      20.53566545        4        1
Se      75.41317959    -121.05449509      17.17711265        5        1
W       71.63971250    -121.12784243      18.85638905        3        1
Se      72.58035628    -119.45837418      20.53566545        4        1
Se      72.58035628    -119.45837418      17.17711265        5        1
W      223.69065067    -119.53172152      18.85638905        3        1
Se      69.74753296    -117.86225326      20.53566545        4        1
Se      69.74753296    -117.86225326      17.17711265        5        1
W      220.85782735    -117.93560061      18.85638905        3        1
Se     221.79847113    -116.26613235      20.53566545        4        1
Se     221.79847113    -116.26613235      17.17711265        5        1
W       25.32475783      -1.30054296      18.85638905        3        1
Se     103.70728234    -133.76434678      20.53566545        4        1
Se     103.70728234    -133.76434678      17.17711265        5        1
W       99.93381525    -133.83769413      18.85638905        3        1
Se     100.87445903    -132.16822587      20.53566545        4        1
Se     100.87445903    -132.16822587      17.17711265        5        1
W       97.10099194    -132.24157322      18.85638905        3        1
Se      98.04163571    -130.57210496      20.53566545        4        1
Se      98.04163571    -130.57210496      17.17711265        5        1
W       94.26816862    -130.64545231      18.85638905        3        1
Se      95.20881240    -128.97598405      20.53566545        4        1
Se      95.20881240    -128.97598405      17.17711265        5        1
W       91.43534531    -129.04933140      18.85638905        3        1
Se      92.37598908    -127.37986314      20.53566545        4        1
Se      92.37598908    -127.37986314      17.17711265        5        1
W       88.60252199    -127.45321049      18.85638905        3        1
Se      89.54316577    -125.78374223      20.53566545        4        1
Se      89.54316577    -125.78374223      17.17711265        5        1
W       85.76969868    -125.85708958      18.85638905        3        1
Se      86.71034245    -124.18762132      20.53566545        4        1
Se      86.71034245    -124.18762132      17.17711265        5        1
W       82.93687536    -124.26096866      18.85638905        3        1
Se      83.87751914    -122.59150041      20.53566545        4        1
Se      83.87751914    -122.59150041      17.17711265        5        1
W       80.10405205    -122.66484775      18.85638905        3        1
Se      81.04469582    -120.99537950      20.53566545        4        1
Se      81.04469582    -120.99537950      17.17711265        5        1
W       77.27122873    -121.06872684      18.85638905        3        1
Se      78.21187251    -119.39925859      20.53566545        4        1
Se      78.21187251    -119.39925859      17.17711265        5        1
W       74.43840542    -119.47260593      18.85638905        3        1
Se      75.37904919    -117.80313768      20.53566545        4        1
Se      75.37904919    -117.80313768      17.17711265        5        1
W       71.60558210    -117.87648502      18.85638905        3        1
Se      72.54622588    -116.20701676      20.53566545        4        1
Se      72.54622588    -116.20701676      17.17711265        5        1
W       68.77275879    -116.28036411      18.85638905        3        1
Se      69.71340256    -114.61089585      20.53566545        4        1
Se      69.71340256    -114.61089585      17.17711265        5        1
W      220.82369695    -114.68424320      18.85638905        3        1
Se      66.88057925    -113.01477494      20.53566545        4        1
Se      66.88057925    -113.01477494      17.17711265        5        1
W      217.99087364    -113.08812229      18.85638905        3        1
Se     218.93151741    -111.41865403      20.53566545        4        1
Se     218.93151741    -111.41865403      17.17711265        5        1
W       30.95627405      -1.24142737      18.85638905        3        1
Se     109.33879857    -133.70523119      20.53566545        4        1
Se     109.33879857    -133.70523119      17.17711265        5        1
W      105.56533148    -133.77857854      18.85638905        3        1
Se     106.50597525    -132.10911028      20.53566545        4        1
Se     106.50597525    -132.10911028      17.17711265        5        1
W      102.73250816    -132.18245763      18.85638905        3        1
Se     103.67315194    -130.51298937      20.53566545        4        1
Se     103.67315194    -130.51298937      17.17711265        5        1
W       99.89968485    -130.58633672      18.85638905        3        1
Se     100.84032862    -128.91686846      20.53566545        4        1
Se     100.84032862    -128.91686846      17.17711265        5        1
W       97.06686154    -128.99021581      18.85638905        3        1
Se      98.00750531    -127.32074755      20.53566545        4        1
Se      98.00750531    -127.32074755      17.17711265        5        1
W       94.23403822    -127.39409490      18.85638905        3        1
Se      95.17468199    -125.72462664      20.53566545        4        1
Se      95.17468199    -125.72462664      17.17711265        5        1
W       91.40121491    -125.79797399      18.85638905        3        1
Se      92.34185868    -124.12850573      20.53566545        4        1
Se      92.34185868    -124.12850573      17.17711265        5        1
W       88.56839159    -124.20185308      18.85638905        3        1
Se      89.50903536    -122.53238482      20.53566545        4        1
Se      89.50903536    -122.53238482      17.17711265        5        1
W       85.73556828    -122.60573216      18.85638905        3        1
Se      86.67621205    -120.93626391      20.53566545        4        1
Se      86.67621205    -120.93626391      17.17711265        5        1
W       82.90274496    -121.00961125      18.85638905        3        1
Se      83.84338874    -119.34014300      20.53566545        4        1
Se      83.84338874    -119.34014300      17.17711265        5        1
W       80.06992165    -119.41349034      18.85638905        3        1
Se      81.01056542    -117.74402209      20.53566545        4        1
Se      81.01056542    -117.74402209      17.17711265        5        1
W       77.23709833    -117.81736943      18.85638905        3        1
Se      78.17774211    -116.14790118      20.53566545        4        1
Se      78.17774211    -116.14790118      17.17711265        5        1
W       74.40427502    -116.22124852      18.85638905        3        1
Se      75.34491879    -114.55178027      20.53566545        4        1
Se      75.34491879    -114.55178027      17.17711265        5        1
W       71.57145170    -114.62512761      18.85638905        3        1
Se      72.51209548    -112.95565935      20.53566545        4        1
Se      72.51209548    -112.95565935      17.17711265        5        1
W       68.73862839    -113.02900670      18.85638905        3        1
Se      69.67927216    -111.35953844      20.53566545        4        1
Se      69.67927216    -111.35953844      17.17711265        5        1
W       65.90580507    -111.43288579      18.85638905        3        1
Se      66.84644885    -109.76341753      20.53566545        4        1
Se      66.84644885    -109.76341753      17.17711265        5        1
W      217.95674324    -109.83676488      18.85638905        3        1
Se      64.01362553    -108.16729662      20.53566545        4        1
Se      64.01362553    -108.16729662      17.17711265        5        1
W      215.12391992    -108.24064397      18.85638905        3        1
Se     216.06456370    -106.57117571      20.53566545        4        1
Se     216.06456370    -106.57117571      17.17711265        5        1
W       36.58779028      -1.18231179      18.85638905        3        1
Se     114.97031480    -133.64611560      20.53566545        4        1
Se     114.97031480    -133.64611560      17.17711265        5        1
W      111.19684771    -133.71946295      18.85638905        3        1
Se     112.13749148    -132.04999469      20.53566545        4        1
Se     112.13749148    -132.04999469      17.17711265        5        1
W      108.36402439    -132.12334204      18.85638905        3        1
Se     109.30466817    -130.45387378      20.53566545        4        1
Se     109.30466817    -130.45387378      17.17711265        5        1
W      105.53120108    -130.52722113      18.85638905        3        1
Se     106.47184485    -128.85775287      20.53566545        4        1
Se     106.47184485    -128.85775287      17.17711265        5        1
W      102.69837776    -128.93110022      18.85638905        3        1
Se     103.63902154    -127.26163196      20.53566545        4        1
Se     103.63902154    -127.26163196      17.17711265        5        1
W       99.86555445    -127.33497931      18.85638905        3        1
Se     100.80619822    -125.66551105      20.53566545        4        1
Se     100.80619822    -125.66551105      17.17711265        5        1
W       97.03273113    -125.73885840      18.85638905        3        1
Se      97.97337491    -124.06939014      20.53566545        4        1
Se      97.97337491    -124.06939014      17.17711265        5        1
W       94.19990782    -124.14273749      18.85638905        3        1
Se      95.14055159    -122.47326923      20.53566545        4        1
Se      95.14055159    -122.47326923      17.17711265        5        1
W       91.36708450    -122.54661658      18.85638905        3        1
Se      92.30772828    -120.87714832      20.53566545        4        1
Se      92.30772828    -120.87714832      17.17711265        5        1
W       88.53426119    -120.95049567      18.85638905        3        1
Se      89.47490496    -119.28102741      20.53566545        4        1
Se      89.47490496    -119.28102741      17.17711265        5        1
W       85.70143787    -119.35437475      18.85638905        3        1
Se      86.64208165    -117.68490650      20.53566545        4        1
Se      86.64208165    -117.68490650      17.17711265        5        1
W       82.86861456    -117.75825384      18.85638905        3        1
Se      83.80925833    -116.08878559      20.53566545        4        1
Se      83.80925833    -116.08878559      17.17711265        5        1
W       80.03579124    -116.16213293      18.85638905        3        1
Se      80.97643502    -114.49266468      20.53566545        4        1
Se      80.97643502    -114.49266468      17.17711265        5        1
W       77.20296793    -114.56601202      18.85638905        3        1
Se      78.14361170    -112.89654377      20.53566545        4        1
Se      78.14361170    -112.89654377      17.17711265        5        1
W       74.37014461    -112.96989111      18.85638905        3        1
Se      75.31078839    -111.30042285      20.53566545        4        1
Se      75.31078839    -111.30042285      17.17711265        5        1
W       71.53732130    -111.37377020      18.85638905        3        1
Se      72.47796507    -109.70430194      20.53566545        4        1
Se      72.47796507    -109.70430194      17.17711265        5        1
W       68.70449799    -109.77764929      18.85638905        3        1
Se      69.64514176    -108.10818103      20.53566545        4        1
Se      69.64514176    -108.10818103      17.17711265        5        1
W       65.87167467    -108.18152838      18.85638905        3        1
Se      66.81231844    -106.51206012      20.53566545        4        1
Se      66.81231844    -106.51206012      17.17711265        5        1
W       63.03885136    -106.58540747      18.85638905        3        1
Se      63.97949513    -104.91593921      20.53566545        4        1
Se      63.97949513    -104.91593921      17.17711265        5        1
W      215.08978952    -104.98928656      18.85638905        3        1
Se      61.14667182    -103.31981830      20.53566545        4        1
Se      61.14667182    -103.31981830      17.17711265        5        1
W      212.25696620    -103.39316565      18.85638905        3        1
Se     213.19760998    -101.72369739      20.53566545        4        1
Se     213.19760998    -101.72369739      17.17711265        5        1
W       42.21930651      -1.12319620      18.85638905        3        1
Se     120.60183103    -133.58700001      20.53566545        4        1
Se     120.60183103    -133.58700001      17.17711265        5        1
W      116.82836394    -133.66034736      18.85638905        3        1
Se     117.76900771    -131.99087910      20.53566545        4        1
Se     117.76900771    -131.99087910      17.17711265        5        1
W      113.99554062    -132.06422645      18.85638905        3        1
Se     114.93618440    -130.39475819      20.53566545        4        1
Se     114.93618440    -130.39475819      17.17711265        5        1
W      111.16271731    -130.46810554      18.85638905        3        1
Se     112.10336108    -128.79863728      20.53566545        4        1
Se     112.10336108    -128.79863728      17.17711265        5        1
W      108.32989399    -128.87198463      18.85638905        3        1
Se     109.27053777    -127.20251637      20.53566545        4        1
Se     109.27053777    -127.20251637      17.17711265        5        1
W      105.49707068    -127.27586372      18.85638905        3        1
Se     106.43771445    -125.60639546      20.53566545        4        1
Se     106.43771445    -125.60639546      17.17711265        5        1
W      102.66424736    -125.67974281      18.85638905        3        1
Se     103.60489114    -124.01027455      20.53566545        4        1
Se     103.60489114    -124.01027455      17.17711265        5        1
W       99.83142405    -124.08362190      18.85638905        3        1
Se     100.77206782    -122.41415364      20.53566545        4        1
Se     100.77206782    -122.41415364      17.17711265        5        1
W       96.99860073    -122.48750099      18.85638905        3        1
Se      97.93924451    -120.81803273      20.53566545        4        1
Se      97.93924451    -120.81803273      17.17711265        5        1
W       94.16577742    -120.89138008      18.85638905        3        1
Se      95.10642119    -119.22191182      20.53566545        4        1
Se      95.10642119    -119.22191182      17.17711265        5        1
W       91.33295410    -119.29525917      18.85638905        3        1
Se      92.27359788    -117.62579091      20.53566545        4        1
Se      92.27359788    -117.62579091      17.17711265        5        1
W       88.50013079    -117.69913825      18.85638905        3        1
Se      89.44077456    -116.02967000      20.53566545        4        1
Se      89.44077456    -116.02967000      17.17711265        5        1
W       85.66730747    -116.10301734      18.85638905        3        1
Se      86.60795125    -114.43354909      20.53566545        4        1
Se      86.60795125    -114.43354909      17.17711265        5        1
W       82.83448416    -114.50689643      18.85638905        3        1
Se      83.77512793    -112.83742818      20.53566545        4        1
Se      83.77512793    -112.83742818      17.17711265        5        1
W       80.00166084    -112.91077552      18.85638905        3        1
Se      80.94230462    -111.24130727      20.53566545        4        1
Se      80.94230462    -111.24130727      17.17711265        5        1
W       77.16883753    -111.31465461      18.85638905        3        1
Se      78.10948130    -109.64518635      20.53566545        4        1
Se      78.10948130    -109.64518635      17.17711265        5        1
W       74.33601421    -109.71853370      18.85638905        3        1
Se      75.27665799    -108.04906544      20.53566545        4        1
Se      75.27665799    -108.04906544      17.17711265        5        1
W       71.50319090    -108.12241279      18.85638905        3        1
Se      72.44383467    -106.45294453      20.53566545        4        1
Se      72.44383467    -106.45294453      17.17711265        5        1
W       68.67036758    -106.52629188      18.85638905        3        1
Se      69.61101136    -104.85682362      20.53566545        4        1
Se      69.61101136    -104.85682362      17.17711265        5        1
W       65.83754427    -104.93017097      18.85638905        3        1
Se      66.77818804    -103.26070271      20.53566545        4        1
Se      66.77818804    -103.26070271      17.17711265        5        1
W       63.00472095    -103.33405006      18.85638905        3        1
Se      63.94536473    -101.66458180      20.53566545        4        1
Se      63.94536473    -101.66458180      17.17711265        5        1
W       60.17189764    -101.73792915      18.85638905        3        1
Se      61.11254141    -100.06846089      20.53566545        4        1
Se      61.11254141    -100.06846089      17.17711265        5        1
W      212.22283580    -100.14180824      18.85638905        3        1
Se      58.27971810     -98.47233998      20.53566545        4        1
Se      58.27971810     -98.47233998      17.17711265        5        1
W      209.39001249     -98.54568733      18.85638905        3        1
Se     210.33065626     -96.87621907      20.53566545        4        1
Se     210.33065626     -96.87621907      17.17711265        5        1
W       47.85082274      -1.06408061      18.85638905        3        1
Se     126.23334725    -133.52788442      20.53566545        4        1
Se     126.23334725    -133.52788442      17.17711265        5        1
W      122.45988016    -133.60123177      18.85638905        3        1
Se     123.40052394    -131.93176351      20.53566545        4        1
Se     123.40052394    -131.93176351      17.17711265        5        1
W      119.62705685    -132.00511086      18.85638905        3        1
Se     120.56770062    -130.33564260      20.53566545        4        1
Se     120.56770062    -130.33564260      17.17711265        5        1
W      116.79423353    -130.40898995      18.85638905        3        1
Se     117.73487731    -128.73952169      20.53566545        4        1
Se     117.73487731    -128.73952169      17.17711265        5        1
W      113.96141022    -128.81286904      18.85638905        3        1
Se     114.90205399    -127.14340078      20.53566545        4        1
Se     114.90205399    -127.14340078      17.17711265        5        1
W      111.12858691    -127.21674813      18.85638905        3        1
Se     112.06923068    -125.54727987      20.53566545        4        1
Se     112.06923068    -125.54727987      17.17711265        5        1
W      108.29576359    -125.62062722      18.85638905        3        1
Se     109.23640736    -123.95115896      20.53566545        4        1
Se     109.23640736    -123.95115896      17.17711265        5        1
W      105.46294028    -124.02450631      18.85638905        3        1
Se     106.40358405    -122.35503805      20.53566545        4        1
Se     106.40358405    -122.35503805      17.17711265        5        1
W      102.63011696    -122.42838540      18.85638905        3        1
Se     103.57076073    -120.75891714      20.53566545        4        1
Se     103.57076073    -120.75891714      17.17711265        5        1
W       99.79729365    -120.83226449      18.85638905        3        1
Se     100.73793742    -119.16279623      20.53566545        4        1
Se     100.73793742    -119.16279623      17.17711265        5        1
W       96.96447033    -119.23614358      18.85638905        3        1
Se      97.90511411    -117.56667532      20.53566545        4        1
Se      97.90511411    -117.56667532      17.17711265        5        1
W       94.13164702    -117.64002267      18.85638905        3        1
Se      95.07229079    -115.97055441      20.53566545        4        1
Se      95.07229079    -115.97055441      17.17711265        5        1
W       91.29882370    -116.04390175      18.85638905        3        1
Se      92.23946748    -114.37443350      20.53566545        4        1
Se      92.23946748    -114.37443350      17.17711265        5        1
W       88.46600039    -114.44778084      18.85638905        3        1
Se      89.40664416    -112.77831259      20.53566545        4        1
Se      89.40664416    -112.77831259      17.17711265        5        1
W       85.63317707    -112.85165993      18.85638905        3        1
Se      86.57382085    -111.18219168      20.53566545        4        1
Se      86.57382085    -111.18219168      17.17711265        5        1
W       82.80035376    -111.25553902      18.85638905        3        1
Se      83.74099753    -109.58607077      20.53566545        4        1
Se      83.74099753    -109.58607077      17.17711265        5        1
W       79.96753044    -109.65941811      18.85638905        3        1
Se      80.90817422    -107.98994986      20.53566545        4        1
Se      80.90817422    -107.98994986      17.17711265        5        1
W       77.13470713    -108.06329720      18.85638905        3        1
Se      78.07535090    -106.39382894      20.53566545        4        1
Se      78.07535090    -106.39382894      17.17711265        5        1
W       74.30188381    -106.46717629      18.85638905        3        1
Se      75.24252759    -104.79770803      20.53566545        4        1
Se      75.24252759    -104.79770803      17.17711265        5        1
W       71.46906050    -104.87105538      18.85638905        3        1
Se      72.40970427    -103.20158712      20.53566545        4        1
Se      72.40970427    -103.20158712      17.17711265        5        1
W       68.63623718    -103.27493447      18.85638905        3        1
Se      69.57688096    -101.60546621      20.53566545        4        1
Se      69.57688096    -101.60546621      17.17711265        5        1
W       65.80341387    -101.67881356      18.85638905        3        1
Se      66.74405764    -100.00934530      20.53566545        4        1
Se      66.74405764    -100.00934530      17.17711265        5        1
W       62.97059055    -100.08269265      18.85638905        3        1
Se      63.91123433     -98.41322439      20.53566545        4        1
Se      63.91123433     -98.41322439      17.17711265        5        1
W       60.13776724     -98.48657174      18.85638905        3        1
Se      61.07841101     -96.81710348      20.53566545        4        1
Se      61.07841101     -96.81710348      17.17711265        5        1
W       57.30494392     -96.89045083      18.85638905        3        1
Se      58.24558770     -95.22098257      20.53566545        4        1
Se      58.24558770     -95.22098257      17.17711265        5        1
W      209.35588209     -95.29432992      18.85638905        3        1
Se      55.41276438     -93.62486166      20.53566545        4        1
Se      55.41276438     -93.62486166      17.17711265        5        1
W      206.52305877     -93.69820901      18.85638905        3        1
Se     207.46370255     -92.02874075      20.53566545        4        1
Se     207.46370255     -92.02874075      17.17711265        5        1
W       53.48233897      -1.00496502      18.85638905        3        1
Se     131.86486348    -133.46876883      20.53566545        4        1
Se     131.86486348    -133.46876883      17.17711265        5        1
W      128.09139639    -133.54211618      18.85638905        3        1
Se     129.03204017    -131.87264792      20.53566545        4        1
Se     129.03204017    -131.87264792      17.17711265        5        1
W      125.25857308    -131.94599527      18.85638905        3        1
Se     126.19921685    -130.27652701      20.53566545        4        1
Se     126.19921685    -130.27652701      17.17711265        5        1
W      122.42574976    -130.34987436      18.85638905        3        1
Se     123.36639354    -128.68040610      20.53566545        4        1
Se     123.36639354    -128.68040610      17.17711265        5        1
W      119.59292645    -128.75375345      18.85638905        3        1
Se     120.53357022    -127.08428519      20.53566545        4        1
Se     120.53357022    -127.08428519      17.17711265        5        1
W      116.76010313    -127.15763254      18.85638905        3        1
Se     117.70074691    -125.48816428      20.53566545        4        1
Se     117.70074691    -125.48816428      17.17711265        5        1
W      113.92727982    -125.56151163      18.85638905        3        1
Se     114.86792359    -123.89204337      20.53566545        4        1
Se     114.86792359    -123.89204337      17.17711265        5        1
W      111.09445650    -123.96539072      18.85638905        3        1
Se     112.03510028    -122.29592246      20.53566545        4        1
Se     112.03510028    -122.29592246      17.17711265        5        1
W      108.26163319    -122.36926981      18.85638905        3        1
Se     109.20227696    -120.69980155      20.53566545        4        1
Se     109.20227696    -120.69980155      17.17711265        5        1
W      105.42880987    -120.77314890      18.85638905        3        1
Se     106.36945365    -119.10368064      20.53566545        4        1
Se     106.36945365    -119.10368064      17.17711265        5        1
W      102.59598656    -119.17702799      18.85638905        3        1
Se     103.53663033    -117.50755973      20.53566545        4        1
Se     103.53663033    -117.50755973      17.17711265        5        1
W       99.76316324    -117.58090708      18.85638905        3        1
Se     100.70380702    -115.91143882      20.53566545        4        1
Se     100.70380702    -115.91143882      17.17711265        5        1
W       96.93033993    -115.98478617      18.85638905        3        1
Se      97.87098370    -114.31531791      20.53566545        4        1
Se      97.87098370    -114.31531791      17.17711265        5        1
W       94.09751661    -114.38866526      18.85638905        3        1
Se      95.03816039    -112.71919700      20.53566545        4        1
Se      95.03816039    -112.71919700      17.17711265        5        1
W       91.26469330    -112.79254434      18.85638905        3        1
Se      92.20533707    -111.12307609      20.53566545        4        1
Se      92.20533707    -111.12307609      17.17711265        5        1
W       88.43186998    -111.19642343      18.85638905        3        1
Se      89.37251376    -109.52695518      20.53566545        4        1
Se      89.37251376    -109.52695518      17.17711265        5        1
W       85.59904667    -109.60030252      18.85638905        3        1
Se      86.53969044    -107.93083427      20.53566545        4        1
Se      86.53969044    -107.93083427      17.17711265        5        1
W       82.76622336    -108.00418161      18.85638905        3        1
Se      83.70686713    -106.33471336      20.53566545        4        1
Se      83.70686713    -106.33471336      17.17711265        5        1
W       79.93340004    -106.40806070      18.85638905        3        1
Se      80.87404381    -104.73859244      20.53566545        4        1
Se      80.87404381    -104.73859244      17.17711265        5        1
W       77.10057673    -104.81193979      18.85638905        3        1
Se      78.04122050    -103.14247153      20.53566545        4        1
Se      78.04122050    -103.14247153      17.17711265        5        1
W       74.26775341    -103.21581888      18.85638905        3        1
Se      75.20839719    -101.54635062      20.53566545        4        1
Se      75.20839719    -101.54635062      17.17711265        5        1
W       71.43493010    -101.61969797      18.85638905        3        1
Se      72.37557387     -99.95022971      20.53566545        4        1
Se      72.37557387     -99.95022971      17.17711265        5        1
W       68.60210678    -100.02357706      18.85638905        3        1
Se      69.54275056     -98.35410880      20.53566545        4        1
Se      69.54275056     -98.35410880      17.17711265        5        1
W       65.76928347     -98.42745615      18.85638905        3        1
Se      66.70992724     -96.75798789      20.53566545        4        1
Se      66.70992724     -96.75798789      17.17711265        5        1
W       62.93646015     -96.83133524      18.85638905        3        1
Se      63.87710393     -95.16186698      20.53566545        4        1
Se      63.87710393     -95.16186698      17.17711265        5        1
W       60.10363684     -95.23521433      18.85638905        3        1
Se      61.04428061     -93.56574607      20.53566545        4        1
Se      61.04428061     -93.56574607      17.17711265        5        1
W       57.27081352     -93.63909342      18.85638905        3        1
Se      58.21145730     -91.96962516      20.53566545        4        1
Se      58.21145730     -91.96962516      17.17711265        5        1
W       54.43799021     -92.04297251      18.85638905        3        1
Se      55.37863398     -90.37350425      20.53566545        4        1
Se      55.37863398     -90.37350425      17.17711265        5        1
W      206.48892837     -90.44685160      18.85638905        3        1
Se      52.54581067     -88.77738334      20.53566545        4        1
Se      52.54581067     -88.77738334      17.17711265        5        1
W      203.65610506     -88.85073069      18.85638905        3        1
Se     204.59674883     -87.18126243      20.53566545        4        1
Se     204.59674883     -87.18126243      17.17711265        5        1
W       59.11385520      -0.94584943      18.85638905        3        1
Se     137.49637971    -133.40965325      20.53566545        4        1
Se     137.49637971    -133.40965325      17.17711265        5        1
W      133.72291262    -133.48300059      18.85638905        3        1
Se     134.66355640    -131.81353233      20.53566545        4        1
Se     134.66355640    -131.81353233      17.17711265        5        1
W      130.89008931    -131.88687968      18.85638905        3        1
Se     131.83073308    -130.21741142      20.53566545        4        1
Se     131.83073308    -130.21741142      17.17711265        5        1
W      128.05726599    -130.29075877      18.85638905        3        1
Se     128.99790977    -128.62129051      20.53566545        4        1
Se     128.99790977    -128.62129051      17.17711265        5        1
W      125.22444268    -128.69463786      18.85638905        3        1
Se     126.16508645    -127.02516960      20.53566545        4        1
Se     126.16508645    -127.02516960      17.17711265        5        1
W      122.39161936    -127.09851695      18.85638905        3        1
Se     123.33226314    -125.42904869      20.53566545        4        1
Se     123.33226314    -125.42904869      17.17711265        5        1
W      119.55879605    -125.50239604      18.85638905        3        1
Se     120.49943982    -123.83292778      20.53566545        4        1
Se     120.49943982    -123.83292778      17.17711265        5        1
W      116.72597273    -123.90627513      18.85638905        3        1
Se     117.66661651    -122.23680687      20.53566545        4        1
Se     117.66661651    -122.23680687      17.17711265        5        1
W      113.89314942    -122.31015422      18.85638905        3        1
Se     114.83379319    -120.64068596      20.53566545        4        1
Se     114.83379319    -120.64068596      17.17711265        5        1
W      111.06032610    -120.71403331      18.85638905        3        1
Se     112.00096988    -119.04456505      20.53566545        4        1
Se     112.00096988    -119.04456505      17.17711265        5        1
W      108.22750279    -119.11791240      18.85638905        3        1
Se     109.16814656    -117.44844414      20.53566545        4        1
Se     109.16814656    -117.44844414      17.17711265        5        1
W      105.39467947    -117.52179149      18.85638905        3        1
Se     106.33532325    -115.85232323      20.53566545        4        1
Se     106.33532325    -115.85232323      17.17711265        5        1
W      102.56185616    -115.92567058      18.85638905        3        1
Se     103.50249993    -114.25620232      20.53566545        4        1
Se     103.50249993    -114.25620232      17.17711265        5        1
W       99.72903284    -114.32954967      18.85638905        3        1
Se     100.66967662    -112.66008141      20.53566545        4        1
Se     100.66967662    -112.66008141      17.17711265        5        1
W       96.89620953    -112.73342876      18.85638905        3        1
Se      97.83685330    -111.06396050      20.53566545        4        1
Se      97.83685330    -111.06396050      17.17711265        5        1
W       94.06338621    -111.13730784      18.85638905        3        1
Se      95.00402999    -109.46783959      20.53566545        4        1
Se      95.00402999    -109.46783959      17.17711265        5        1
W       91.23056290    -109.54118693      18.85638905        3        1
Se      92.17120667    -107.87171868      20.53566545        4        1
Se      92.17120667    -107.87171868      17.17711265        5        1
W       88.39773958    -107.94506602      18.85638905        3        1
Se      89.33838336    -106.27559777      20.53566545        4        1
Se      89.33838336    -106.27559777      17.17711265        5        1
W       85.56491627    -106.34894511      18.85638905        3        1
Se      86.50556004    -104.67947686      20.53566545        4        1
Se      86.50556004    -104.67947686      17.17711265        5        1
W       82.73209295    -104.75282420      18.85638905        3        1
Se      83.67273673    -103.08335594      20.53566545        4        1
Se      83.67273673    -103.08335594      17.17711265        5        1
W       79.89926964    -103.15670329      18.85638905        3        1
Se      80.83991341    -101.48723503      20.53566545        4        1
Se      80.83991341    -101.48723503      17.17711265        5        1
W       77.06644632    -101.56058238      18.85638905        3        1
Se      78.00709010     -99.89111412      20.53566545        4        1
Se      78.00709010     -99.89111412      17.17711265        5        1
W       74.23362301     -99.96446147      18.85638905        3        1
Se      75.17426678     -98.29499321      20.53566545        4        1
Se      75.17426678     -98.29499321      17.17711265        5        1
W       71.40079969     -98.36834056      18.85638905        3        1
Se      72.34144347     -96.69887230      20.53566545        4        1
Se      72.34144347     -96.69887230      17.17711265        5        1
W       68.56797638     -96.77221965      18.85638905        3        1
Se      69.50862015     -95.10275139      20.53566545        4        1
Se      69.50862015     -95.10275139      17.17711265        5        1
W       65.73515306     -95.17609874      18.85638905        3        1
Se      66.67579684     -93.50663048      20.53566545        4        1
Se      66.67579684     -93.50663048      17.17711265        5        1
W       62.90232975     -93.57997783      18.85638905        3        1
Se      63.84297352     -91.91050957      20.53566545        4        1
Se      63.84297352     -91.91050957      17.17711265        5        1
W       60.06950644     -91.98385692      18.85638905        3        1
Se      61.01015021     -90.31438866      20.53566545        4        1
Se      61.01015021     -90.31438866      17.17711265        5        1
W       57.23668312     -90.38773601      18.85638905        3        1
Se      58.17732689     -88.71826775      20.53566545        4        1
Se      58.17732689     -88.71826775      17.17711265        5        1
W       54.40385981     -88.79161510      18.85638905        3        1
Se      55.34450358     -87.12214684      20.53566545        4        1
Se      55.34450358     -87.12214684      17.17711265        5        1
W       51.57103649     -87.19549419      18.85638905        3        1
Se      52.51168027     -85.52602593      20.53566545        4        1
Se      52.51168027     -85.52602593      17.17711265        5        1
W      203.62197465     -85.59937328      18.85638905        3        1
Se      49.67885695     -83.92990502      20.53566545        4        1
Se      49.67885695     -83.92990502      17.17711265        5        1
W      200.78915134     -84.00325237      18.85638905        3        1
Se     201.72979511     -82.33378411      20.53566545        4        1
Se     201.72979511     -82.33378411      17.17711265        5        1
W       64.74537142      -0.88673384      18.85638905        3        1
Se     143.12789594    -133.35053766      20.53566545        4        1
Se     143.12789594    -133.35053766      17.17711265        5        1
W      139.35442885    -133.42388500      18.85638905        3        1
Se     140.29507262    -131.75441675      20.53566545        4        1
Se     140.29507262    -131.75441675      17.17711265        5        1
W      136.52160553    -131.82776409      18.85638905        3        1
Se     137.46224931    -130.15829583      20.53566545        4        1
Se     137.46224931    -130.15829583      17.17711265        5        1
W      133.68878222    -130.23164318      18.85638905        3        1
Se     134.62942599    -128.56217492      20.53566545        4        1
Se     134.62942599    -128.56217492      17.17711265        5        1
W      130.85595890    -128.63552227      18.85638905        3        1
Se     131.79660268    -126.96605401      20.53566545        4        1
Se     131.79660268    -126.96605401      17.17711265        5        1
W      128.02313559    -127.03940136      18.85638905        3        1
Se     128.96377936    -125.36993310      20.53566545        4        1
Se     128.96377936    -125.36993310      17.17711265        5        1
W      125.19031228    -125.44328045      18.85638905        3        1
Se     126.13095605    -123.77381219      20.53566545        4        1
Se     126.13095605    -123.77381219      17.17711265        5        1
W      122.35748896    -123.84715954      18.85638905        3        1
Se     123.29813273    -122.17769128      20.53566545        4        1
Se     123.29813273    -122.17769128      17.17711265        5        1
W      119.52466565    -122.25103863      18.85638905        3        1
Se     120.46530942    -120.58157037      20.53566545        4        1
Se     120.46530942    -120.58157037      17.17711265        5        1
W      116.69184233    -120.65491772      18.85638905        3        1
Se     117.63248611    -118.98544946      20.53566545        4        1
Se     117.63248611    -118.98544946      17.17711265        5        1
W      113.85901902    -119.05879681      18.85638905        3        1
Se     114.79966279    -117.38932855      20.53566545        4        1
Se     114.79966279    -117.38932855      17.17711265        5        1
W      111.02619570    -117.46267590      18.85638905        3        1
Se     111.96683948    -115.79320764      20.53566545        4        1
Se     111.96683948    -115.79320764      17.17711265        5        1
W      108.19337239    -115.86655499      18.85638905        3        1
Se     109.13401616    -114.19708673      20.53566545        4        1
Se     109.13401616    -114.19708673      17.17711265        5        1
W      105.36054907    -114.27043408      18.85638905        3        1
Se     106.30119285    -112.60096582      20.53566545        4        1
Se     106.30119285    -112.60096582      17.17711265        5        1
W      102.52772576    -112.67431317      18.85638905        3        1
Se     103.46836953    -111.00484491      20.53566545        4        1
Se     103.46836953    -111.00484491      17.17711265        5        1
W       99.69490244    -111.07819226      18.85638905        3        1
Se     100.63554622    -109.40872400      20.53566545        4        1
Se     100.63554622    -109.40872400      17.17711265        5        1
W       96.86207913    -109.48207134      18.85638905        3        1
Se      97.80272290    -107.81260309      20.53566545        4        1
Se      97.80272290    -107.81260309      17.17711265        5        1
W       94.02925581    -107.88595043      18.85638905        3        1
Se      94.96989959    -106.21648218      20.53566545        4        1
Se      94.96989959    -106.21648218      17.17711265        5        1
W       91.19643250    -106.28982952      18.85638905        3        1
Se      92.13707627    -104.62036127      20.53566545        4        1
Se      92.13707627    -104.62036127      17.17711265        5        1
W       88.36360918    -104.69370861      18.85638905        3        1
Se      89.30425296    -103.02424036      20.53566545        4        1
Se      89.30425296    -103.02424036      17.17711265        5        1
W       85.53078587    -103.09758770      18.85638905        3        1
Se      86.47142964    -101.42811945      20.53566545        4        1
Se      86.47142964    -101.42811945      17.17711265        5        1
W       82.69796255    -101.50146679      18.85638905        3        1
Se      83.63860633     -99.83199853      20.53566545        4        1
Se      83.63860633     -99.83199853      17.17711265        5        1
W       79.86513924     -99.90534588      18.85638905        3        1
Se      80.80578301     -98.23587762      20.53566545        4        1
Se      80.80578301     -98.23587762      17.17711265        5        1
W       77.03231592     -98.30922497      18.85638905        3        1
Se      77.97295970     -96.63975671      20.53566545        4        1
Se      77.97295970     -96.63975671      17.17711265        5        1
W       74.19949261     -96.71310406      18.85638905        3        1
Se      75.14013638     -95.04363580      20.53566545        4        1
Se      75.14013638     -95.04363580      17.17711265        5        1
W       71.36666929     -95.11698315      18.85638905        3        1
Se      72.30731307     -93.44751489      20.53566545        4        1
Se      72.30731307     -93.44751489      17.17711265        5        1
W       68.53384598     -93.52086224      18.85638905        3        1
Se      69.47448975     -91.85139398      20.53566545        4        1
Se      69.47448975     -91.85139398      17.17711265        5        1
W       65.70102266     -91.92474133      18.85638905        3        1
Se      66.64166644     -90.25527307      20.53566545        4        1
Se      66.64166644     -90.25527307      17.17711265        5        1
W       62.86819935     -90.32862042      18.85638905        3        1
Se      63.80884312     -88.65915216      20.53566545        4        1
Se      63.80884312     -88.65915216      17.17711265        5        1
W       60.03537603     -88.73249951      18.85638905        3        1
Se      60.97601981     -87.06303125      20.53566545        4        1
Se      60.97601981     -87.06303125      17.17711265        5        1
W       57.20255272     -87.13637860      18.85638905        3        1
Se      58.14319649     -85.46691034      20.53566545        4        1
Se      58.14319649     -85.46691034      17.17711265        5        1
W       54.36972940     -85.54025769      18.85638905        3        1
Se      55.31037318     -83.87078943      20.53566545        4        1
Se      55.31037318     -83.87078943      17.17711265        5        1
W       51.53690609     -83.94413678      18.85638905        3        1
Se      52.47754986     -82.27466852      20.53566545        4        1
Se      52.47754986     -82.27466852      17.17711265        5        1
W       48.70408277     -82.34801587      18.85638905        3        1
Se      49.64472655     -80.67854761      20.53566545        4        1
Se      49.64472655     -80.67854761      17.17711265        5        1
W      200.75502094     -80.75189496      18.85638905        3        1
Se      46.81190323     -79.08242670      20.53566545        4        1
Se      46.81190323     -79.08242670      17.17711265        5        1
W      197.92219762     -79.15577404      18.85638905        3        1
Se     198.86284140     -77.48630579      20.53566545        4        1
Se     198.86284140     -77.48630579      17.17711265        5        1
W       70.37688765      -0.82761825      18.85638905        3        1
Se     148.75941217    -133.29142207      20.53566545        4        1
Se     148.75941217    -133.29142207      17.17711265        5        1
W      144.98594508    -133.36476941      18.85638905        3        1
Se     145.92658885    -131.69530116      20.53566545        4        1
Se     145.92658885    -131.69530116      17.17711265        5        1
W      142.15312176    -131.76864850      18.85638905        3        1
Se     143.09376554    -130.09918025      20.53566545        4        1
Se     143.09376554    -130.09918025      17.17711265        5        1
W      139.32029845    -130.17252759      18.85638905        3        1
Se     140.26094222    -128.50305934      20.53566545        4        1
Se     140.26094222    -128.50305934      17.17711265        5        1
W      136.48747513    -128.57640668      18.85638905        3        1
Se     137.42811891    -126.90693842      20.53566545        4        1
Se     137.42811891    -126.90693842      17.17711265        5        1
W      133.65465182    -126.98028577      18.85638905        3        1
Se     134.59529559    -125.31081751      20.53566545        4        1
Se     134.59529559    -125.31081751      17.17711265        5        1
W      130.82182850    -125.38416486      18.85638905        3        1
Se     131.76247228    -123.71469660      20.53566545        4        1
Se     131.76247228    -123.71469660      17.17711265        5        1
W      127.98900519    -123.78804395      18.85638905        3        1
Se     128.92964896    -122.11857569      20.53566545        4        1
Se     128.92964896    -122.11857569      17.17711265        5        1
W      125.15618187    -122.19192304      18.85638905        3        1
Se     126.09682565    -120.52245478      20.53566545        4        1
Se     126.09682565    -120.52245478      17.17711265        5        1
W      122.32335856    -120.59580213      18.85638905        3        1
Se     123.26400233    -118.92633387      20.53566545        4        1
Se     123.26400233    -118.92633387      17.17711265        5        1
W      119.49053524    -118.99968122      18.85638905        3        1
Se     120.43117902    -117.33021296      20.53566545        4        1
Se     120.43117902    -117.33021296      17.17711265        5        1
W      116.65771193    -117.40356031      18.85638905        3        1
Se     117.59835570    -115.73409205      20.53566545        4        1
Se     117.59835570    -115.73409205      17.17711265        5        1
W      113.82488861    -115.80743940      18.85638905        3        1
Se     114.76553239    -114.13797114      20.53566545        4        1
Se     114.76553239    -114.13797114      17.17711265        5        1
W      110.99206530    -114.21131849      18.85638905        3        1
Se     111.93270907    -112.54185023      20.53566545        4        1
Se     111.93270907    -112.54185023      17.17711265        5        1
W      108.15924198    -112.61519758      18.85638905        3        1
Se     109.09988576    -110.94572932      20.53566545        4        1
Se     109.09988576    -110.94572932      17.17711265        5        1
W      105.32641867    -111.01907667      18.85638905        3        1
Se     106.26706244    -109.34960841      20.53566545        4        1
Se     106.26706244    -109.34960841      17.17711265        5        1
W      102.49359536    -109.42295576      18.85638905        3        1
Se     103.43423913    -107.75348750      20.53566545        4        1
Se     103.43423913    -107.75348750      17.17711265        5        1
W       99.66077204    -107.82683485      18.85638905        3        1
Se     100.60141581    -106.15736659      20.53566545        4        1
Se     100.60141581    -106.15736659      17.17711265        5        1
W       96.82794873    -106.23071393      18.85638905        3        1
Se      97.76859250    -104.56124568      20.53566545        4        1
Se      97.76859250    -104.56124568      17.17711265        5        1
W       93.99512541    -104.63459302      18.85638905        3        1
Se      94.93576918    -102.96512477      20.53566545        4        1
Se      94.93576918    -102.96512477      17.17711265        5        1
W       91.16230210    -103.03847211      18.85638905        3        1
Se      92.10294587    -101.36900386      20.53566545        4        1
Se      92.10294587    -101.36900386      17.17711265        5        1
W       88.32947878    -101.44235120      18.85638905        3        1
Se      89.27012256     -99.77288295      20.53566545        4        1
Se      89.27012256     -99.77288295      17.17711265        5        1
W       85.49665547     -99.84623029      18.85638905        3        1
Se      86.43729924     -98.17676203      20.53566545        4        1
Se      86.43729924     -98.17676203      17.17711265        5        1
W       82.66383215     -98.25010938      18.85638905        3        1
Se      83.60447593     -96.58064112      20.53566545        4        1
Se      83.60447593     -96.58064112      17.17711265        5        1
W       79.83100884     -96.65398847      18.85638905        3        1
Se      80.77165261     -94.98452021      20.53566545        4        1
Se      80.77165261     -94.98452021      17.17711265        5        1
W       76.99818552     -95.05786756      18.85638905        3        1
Se      77.93882930     -93.38839930      20.53566545        4        1
Se      77.93882930     -93.38839930      17.17711265        5        1
W       74.16536221     -93.46174665      18.85638905        3        1
Se      75.10600598     -91.79227839      20.53566545        4        1
Se      75.10600598     -91.79227839      17.17711265        5        1
W       71.33253889     -91.86562574      18.85638905        3        1
Se      72.27318267     -90.19615748      20.53566545        4        1
Se      72.27318267     -90.19615748      17.17711265        5        1
W       68.49971558     -90.26950483      18.85638905        3        1
Se      69.44035935     -88.60003657      20.53566545        4        1
Se      69.44035935     -88.60003657      17.17711265        5        1
W       65.66689226     -88.67338392      18.85638905        3        1
Se      66.60753604     -87.00391566      20.53566545        4        1
Se      66.60753604     -87.00391566      17.17711265        5        1
W       62.83406895     -87.07726301      18.85638905        3        1
Se      63.77471272     -85.40779475      20.53566545        4        1
Se      63.77471272     -85.40779475      17.17711265        5        1
W       60.00124563     -85.48114210      18.85638905        3        1
Se      60.94188941     -83.81167384      20.53566545        4        1
Se      60.94188941     -83.81167384      17.17711265        5        1
W       57.16842232     -83.88502119      18.85638905        3        1
Se      58.10906609     -82.21555293      20.53566545        4        1
Se      58.10906609     -82.21555293      17.17711265        5        1
W       54.33559900     -82.28890028      18.85638905        3        1
Se      55.27624278     -80.61943202      20.53566545        4        1
Se      55.27624278     -80.61943202      17.17711265        5        1
W       51.50277569     -80.69277937      18.85638905        3        1
Se      52.44341946     -79.02331111      20.53566545        4        1
Se      52.44341946     -79.02331111      17.17711265        5        1
W       48.66995237     -79.09665846      18.85638905        3        1
Se      49.61059615     -77.42719020      20.53566545        4        1
Se      49.61059615     -77.42719020      17.17711265        5        1
W       45.83712906     -77.50053754      18.85638905        3        1
Se      46.77777283     -75.83106929      20.53566545        4        1
Se      46.77777283     -75.83106929      17.17711265        5        1
W      197.88806722     -75.90441663      18.85638905        3        1
Se      43.94494952     -74.23494838      20.53566545        4        1
Se      43.94494952     -74.23494838      17.17711265        5        1
W      195.05524391     -74.30829572      18.85638905        3        1
Se     195.99588768     -72.63882747      20.53566545        4        1
Se     195.99588768     -72.63882747      17.17711265        5        1
W       76.00840388      -0.76850266      18.85638905        3        1
Se     154.39092840    -133.23230648      20.53566545        4        1
Se     154.39092840    -133.23230648      17.17711265        5        1
W      150.61746131    -133.30565382      18.85638905        3        1
Se     151.55810508    -131.63618557      20.53566545        4        1
Se     151.55810508    -131.63618557      17.17711265        5        1
W      147.78463799    -131.70953291      18.85638905        3        1
Se     148.72528177    -130.04006466      20.53566545        4        1
Se     148.72528177    -130.04006466      17.17711265        5        1
W      144.95181468    -130.11341200      18.85638905        3        1
Se     145.89245845    -128.44394375      20.53566545        4        1
Se     145.89245845    -128.44394375      17.17711265        5        1
W      142.11899136    -128.51729109      18.85638905        3        1
Se     143.05963514    -126.84782284      20.53566545        4        1
Se     143.05963514    -126.84782284      17.17711265        5        1
W      139.28616805    -126.92117018      18.85638905        3        1
Se     140.22681182    -125.25170192      20.53566545        4        1
Se     140.22681182    -125.25170192      17.17711265        5        1
W      136.45334473    -125.32504927      18.85638905        3        1
Se     137.39398851    -123.65558101      20.53566545        4        1
Se     137.39398851    -123.65558101      17.17711265        5        1
W      133.62052142    -123.72892836      18.85638905        3        1
Se     134.56116519    -122.05946010      20.53566545        4        1
Se     134.56116519    -122.05946010      17.17711265        5        1
W      130.78769810    -122.13280745      18.85638905        3        1
Se     131.72834188    -120.46333919      20.53566545        4        1
Se     131.72834188    -120.46333919      17.17711265        5        1
W      127.95487479    -120.53668654      18.85638905        3        1
Se     128.89551856    -118.86721828      20.53566545        4        1
Se     128.89551856    -118.86721828      17.17711265        5        1
W      125.12205147    -118.94056563      18.85638905        3        1
Se     126.06269525    -117.27109737      20.53566545        4        1
Se     126.06269525    -117.27109737      17.17711265        5        1
W      122.28922816    -117.34444472      18.85638905        3        1
Se     123.22987193    -115.67497646      20.53566545        4        1
Se     123.22987193    -115.67497646      17.17711265        5        1
W      119.45640484    -115.74832381      18.85638905        3        1
Se     120.39704862    -114.07885555      20.53566545        4        1
Se     120.39704862    -114.07885555      17.17711265        5        1
W      116.62358153    -114.15220290      18.85638905        3        1
Se     117.56422530    -112.48273464      20.53566545        4        1
Se     117.56422530    -112.48273464      17.17711265        5        1
W      113.79075821    -112.55608199      18.85638905        3        1
Se     114.73140199    -110.88661373      20.53566545        4        1
Se     114.73140199    -110.88661373      17.17711265        5        1
W      110.95793490    -110.95996108      18.85638905        3        1
Se     111.89857867    -109.29049282      20.53566545        4        1
Se     111.89857867    -109.29049282      17.17711265        5        1
W      108.12511158    -109.36384017      18.85638905        3        1
Se     109.06575536    -107.69437191      20.53566545        4        1
Se     109.06575536    -107.69437191      17.17711265        5        1
W      105.29228827    -107.76771926      18.85638905        3        1
Se     106.23293204    -106.09825100      20.53566545        4        1
Se     106.23293204    -106.09825100      17.17711265        5        1
W      102.45946495    -106.17159835      18.85638905        3        1
Se     103.40010873    -104.50213009      20.53566545        4        1
Se     103.40010873    -104.50213009      17.17711265        5        1
W       99.62664164    -104.57547743      18.85638905        3        1
Se     100.56728541    -102.90600918      20.53566545        4        1
Se     100.56728541    -102.90600918      17.17711265        5        1
W       96.79381832    -102.97935652      18.85638905        3        1
Se      97.73446210    -101.30988827      20.53566545        4        1
Se      97.73446210    -101.30988827      17.17711265        5        1
W       93.96099501    -101.38323561      18.85638905        3        1
Se      94.90163878     -99.71376736      20.53566545        4        1
Se      94.90163878     -99.71376736      17.17711265        5        1
W       91.12817169     -99.78711470      18.85638905        3        1
Se      92.06881547     -98.11764645      20.53566545        4        1
Se      92.06881547     -98.11764645      17.17711265        5        1
W       88.29534838     -98.19099379      18.85638905        3        1
Se      89.23599215     -96.52152554      20.53566545        4        1
Se      89.23599215     -96.52152554      17.17711265        5        1
W       85.46252506     -96.59487288      18.85638905        3        1
Se      86.40316884     -94.92540462      20.53566545        4        1
Se      86.40316884     -94.92540462      17.17711265        5        1
W       82.62970175     -94.99875197      18.85638905        3        1
Se      83.57034552     -93.32928371      20.53566545        4        1
Se      83.57034552     -93.32928371      17.17711265        5        1
W       79.79687843     -93.40263106      18.85638905        3        1
Se      80.73752221     -91.73316280      20.53566545        4        1
Se      80.73752221     -91.73316280      17.17711265        5        1
W       76.96405512     -91.80651015      18.85638905        3        1
Se      77.90469889     -90.13704189      20.53566545        4        1
Se      77.90469889     -90.13704189      17.17711265        5        1
W       74.13123181     -90.21038924      18.85638905        3        1
Se      75.07187558     -88.54092098      20.53566545        4        1
Se      75.07187558     -88.54092098      17.17711265        5        1
W       71.29840849     -88.61426833      18.85638905        3        1
Se      72.23905226     -86.94480007      20.53566545        4        1
Se      72.23905226     -86.94480007      17.17711265        5        1
W       68.46558518     -87.01814742      18.85638905        3        1
Se      69.40622895     -85.34867916      20.53566545        4        1
Se      69.40622895     -85.34867916      17.17711265        5        1
W       65.63276186     -85.42202651      18.85638905        3        1
Se      66.57340564     -83.75255825      20.53566545        4        1
Se      66.57340564     -83.75255825      17.17711265        5        1
W       62.79993855     -83.82590560      18.85638905        3        1
Se      63.74058232     -82.15643734      20.53566545        4        1
Se      63.74058232     -82.15643734      17.17711265        5        1
W       59.96711523     -82.22978469      18.85638905        3        1
Se      60.90775901     -80.56031643      20.53566545        4        1
Se      60.90775901     -80.56031643      17.17711265        5        1
W       57.13429192     -80.63366378      18.85638905        3        1
Se      58.07493569     -78.96419552      20.53566545        4        1
Se      58.07493569     -78.96419552      17.17711265        5        1
W       54.30146860     -79.03754287      18.85638905        3        1
Se      55.24211238     -77.36807461      20.53566545        4        1
Se      55.24211238     -77.36807461      17.17711265        5        1
W       51.46864529     -77.44142196      18.85638905        3        1
Se      52.40928906     -75.77195370      20.53566545        4        1
Se      52.40928906     -75.77195370      17.17711265        5        1
W       48.63582197     -75.84530105      18.85638905        3        1
Se      49.57646575     -74.17583279      20.53566545        4        1
Se      49.57646575     -74.17583279      17.17711265        5        1
W       45.80299866     -74.24918013      18.85638905        3        1
Se      46.74364243     -72.57971188      20.53566545        4        1
Se      46.74364243     -72.57971188      17.17711265        5        1
W       42.97017534     -72.65305922      18.85638905        3        1
Se      43.91081912     -70.98359097      20.53566545        4        1
Se      43.91081912     -70.98359097      17.17711265        5        1
W      195.02111351     -71.05693831      18.85638905        3        1
Se      41.07799580     -69.38747006      20.53566545        4        1
Se      41.07799580     -69.38747006      17.17711265        5        1
W      192.18829019     -69.46081740      18.85638905        3        1
Se     193.12893397     -67.79134915      20.53566545        4        1
Se     193.12893397     -67.79134915      17.17711265        5        1
W       81.63992011      -0.70938707      18.85638905        3        1
Se     160.02244462    -133.17319089      20.53566545        4        1
Se     160.02244462    -133.17319089      17.17711265        5        1
W      156.24897753    -133.24653824      18.85638905        3        1
Se     157.18962131    -131.57706998      20.53566545        4        1
Se     157.18962131    -131.57706998      17.17711265        5        1
W      153.41615422    -131.65041732      18.85638905        3        1
Se     154.35679799    -129.98094907      20.53566545        4        1
Se     154.35679799    -129.98094907      17.17711265        5        1
W      150.58333090    -130.05429641      18.85638905        3        1
Se     151.52397468    -128.38482816      20.53566545        4        1
Se     151.52397468    -128.38482816      17.17711265        5        1
W      147.75050759    -128.45817550      18.85638905        3        1
Se     148.69115136    -126.78870725      20.53566545        4        1
Se     148.69115136    -126.78870725      17.17711265        5        1
W      144.91768427    -126.86205459      18.85638905        3        1
Se     145.85832805    -125.19258634      20.53566545        4        1
Se     145.85832805    -125.19258634      17.17711265        5        1
W      142.08486096    -125.26593368      18.85638905        3        1
Se     143.02550473    -123.59646542      20.53566545        4        1
Se     143.02550473    -123.59646542      17.17711265        5        1
W      139.25203765    -123.66981277      18.85638905        3        1
Se     140.19268142    -122.00034451      20.53566545        4        1
Se     140.19268142    -122.00034451      17.17711265        5        1
W      136.41921433    -122.07369186      18.85638905        3        1
Se     137.35985810    -120.40422360      20.53566545        4        1
Se     137.35985810    -120.40422360      17.17711265        5        1
W      133.58639102    -120.47757095      18.85638905        3        1
Se     134.52703479    -118.80810269      20.53566545        4        1
Se     134.52703479    -118.80810269      17.17711265        5        1
W      130.75356770    -118.88145004      18.85638905        3        1
Se     131.69421148    -117.21198178      20.53566545        4        1
Se     131.69421148    -117.21198178      17.17711265        5        1
W      127.92074439    -117.28532913      18.85638905        3        1
Se     128.86138816    -115.61586087      20.53566545        4        1
Se     128.86138816    -115.61586087      17.17711265        5        1
W      125.08792107    -115.68920822      18.85638905        3        1
Se     126.02856485    -114.01973996      20.53566545        4        1
Se     126.02856485    -114.01973996      17.17711265        5        1
W      122.25509776    -114.09308731      18.85638905        3        1
Se     123.19574153    -112.42361905      20.53566545        4        1
Se     123.19574153    -112.42361905      17.17711265        5        1
W      119.42227444    -112.49696640      18.85638905        3        1
Se     120.36291822    -110.82749814      20.53566545        4        1
Se     120.36291822    -110.82749814      17.17711265        5        1
W      116.58945113    -110.90084549      18.85638905        3        1
Se     117.53009490    -109.23137723      20.53566545        4        1
Se     117.53009490    -109.23137723      17.17711265        5        1
W      113.75662781    -109.30472458      18.85638905        3        1
Se     114.69727159    -107.63525632      20.53566545        4        1
Se     114.69727159    -107.63525632      17.17711265        5        1
W      110.92380450    -107.70860367      18.85638905        3        1
Se     111.86444827    -106.03913541      20.53566545        4        1
Se     111.86444827    -106.03913541      17.17711265        5        1
W      108.09098118    -106.11248276      18.85638905        3        1
Se     109.03162496    -104.44301450      20.53566545        4        1
Se     109.03162496    -104.44301450      17.17711265        5        1
W      105.25815787    -104.51636185      18.85638905        3        1
Se     106.19880164    -102.84689359      20.53566545        4        1
Se     106.19880164    -102.84689359      17.17711265        5        1
W      102.42533455    -102.92024093      18.85638905        3        1
Se     103.36597833    -101.25077268      20.53566545        4        1
Se     103.36597833    -101.25077268      17.17711265        5        1
W       99.59251124    -101.32412002      18.85638905        3        1
Se     100.53315501     -99.65465177      20.53566545        4        1
Se     100.53315501     -99.65465177      17.17711265        5        1
W       96.75968792     -99.72799911      18.85638905        3        1
Se      97.70033170     -98.05853086      20.53566545        4        1
Se      97.70033170     -98.05853086      17.17711265        5        1
W       93.92686461     -98.13187820      18.85638905        3        1
Se      94.86750838     -96.46240995      20.53566545        4        1
Se      94.86750838     -96.46240995      17.17711265        5        1
W       91.09404129     -96.53575729      18.85638905        3        1
Se      92.03468507     -94.86628904      20.53566545        4        1
Se      92.03468507     -94.86628904      17.17711265        5        1
W       88.26121798     -94.93963638      18.85638905        3        1
Se      89.20186175     -93.27016812      20.53566545        4        1
Se      89.20186175     -93.27016812      17.17711265        5        1
W       85.42839466     -93.34351547      18.85638905        3        1
Se      86.36903844     -91.67404721      20.53566545        4        1
Se      86.36903844     -91.67404721      17.17711265        5        1
W       82.59557135     -91.74739456      18.85638905        3        1
Se      83.53621512     -90.07792630      20.53566545        4        1
Se      83.53621512     -90.07792630      17.17711265        5        1
W       79.76274803     -90.15127365      18.85638905        3        1
Se      80.70339181     -88.48180539      20.53566545        4        1
Se      80.70339181     -88.48180539      17.17711265        5        1
W       76.92992472     -88.55515274      18.85638905        3        1
Se      77.87056849     -86.88568448      20.53566545        4        1
Se      77.87056849     -86.88568448      17.17711265        5        1
W       74.09710140     -86.95903183      18.85638905        3        1
Se      75.03774518     -85.28956357      20.53566545        4        1
Se      75.03774518     -85.28956357      17.17711265        5        1
W       71.26427809     -85.36291092      18.85638905        3        1
Se      72.20492186     -83.69344266      20.53566545        4        1
Se      72.20492186     -83.69344266      17.17711265        5        1
W       68.43145477     -83.76679001      18.85638905        3        1
Se      69.37209855     -82.09732175      20.53566545        4        1
Se      69.37209855     -82.09732175      17.17711265        5        1
W       65.59863146     -82.17066910      18.85638905        3        1
Se      66.53927523     -80.50120084      20.53566545        4        1
Se      66.53927523     -80.50120084      17.17711265        5        1
W       62.76580814     -80.57454819      18.85638905        3        1
Se      63.70645192     -78.90507993      20.53566545        4        1
Se      63.70645192     -78.90507993      17.17711265        5        1
W       59.93298483     -78.97842728      18.85638905        3        1
Se      60.87362860     -77.30895902      20.53566545        4        1
Se      60.87362860     -77.30895902      17.17711265        5        1
W       57.10016151     -77.38230637      18.85638905        3        1
Se      58.04080529     -75.71283811      20.53566545        4        1
Se      58.04080529     -75.71283811      17.17711265        5        1
W       54.26733820     -75.78618546      18.85638905        3        1
Se      55.20798197     -74.11671720      20.53566545        4        1
Se      55.20798197     -74.11671720      17.17711265        5        1
W       51.43451489     -74.19006455      18.85638905        3        1
Se      52.37515866     -72.52059629      20.53566545        4        1
Se      52.37515866     -72.52059629      17.17711265        5        1
W       48.60169157     -72.59394363      18.85638905        3        1
Se      49.54233534     -70.92447538      20.53566545        4        1
Se      49.54233534     -70.92447538      17.17711265        5        1
W       45.76886826     -70.99782272      18.85638905        3        1
Se      46.70951203     -69.32835447      20.53566545        4        1
Se      46.70951203     -69.32835447      17.17711265        5        1
W       42.93604494     -69.40170181      18.85638905        3        1
Se      43.87668872     -67.73223356      20.53566545        4        1
Se      43.87668872     -67.73223356      17.17711265        5        1
W       40.10322163     -67.80558090      18.85638905        3        1
Se      41.04386540     -66.13611265      20.53566545        4        1
Se      41.04386540     -66.13611265      17.17711265        5        1
W      192.15415979     -66.20945999      18.85638905        3        1
Se      38.21104209     -64.53999173      20.53566545        4        1
Se      38.21104209     -64.53999173      17.17711265        5        1
W      189.32133647     -64.61333908      18.85638905        3        1
Se     190.26198025     -62.94387082      20.53566545        4        1
Se     190.26198025     -62.94387082      17.17711265        5        1
W       87.27143634      -0.65027148      18.85638905        3        1
Se     165.65396085    -133.11407530      20.53566545        4        1
Se     165.65396085    -133.11407530      17.17711265        5        1
W      161.88049376    -133.18742265      18.85638905        3        1
Se     162.82113754    -131.51795439      20.53566545        4        1
Se     162.82113754    -131.51795439      17.17711265        5        1
W      159.04767045    -131.59130174      18.85638905        3        1
Se     159.98831422    -129.92183348      20.53566545        4        1
Se     159.98831422    -129.92183348      17.17711265        5        1
W      156.21484713    -129.99518082      18.85638905        3        1
Se     157.15549091    -128.32571257      20.53566545        4        1
Se     157.15549091    -128.32571257      17.17711265        5        1
W      153.38202382    -128.39905991      18.85638905        3        1
Se     154.32266759    -126.72959166      20.53566545        4        1
Se     154.32266759    -126.72959166      17.17711265        5        1
W      150.54920050    -126.80293900      18.85638905        3        1
Se     151.48984428    -125.13347075      20.53566545        4        1
Se     151.48984428    -125.13347075      17.17711265        5        1
W      147.71637719    -125.20681809      18.85638905        3        1
Se     148.65702096    -123.53734984      20.53566545        4        1
Se     148.65702096    -123.53734984      17.17711265        5        1
W      144.88355387    -123.61069718      18.85638905        3        1
Se     145.82419765    -121.94122893      20.53566545        4        1
Se     145.82419765    -121.94122893      17.17711265        5        1
W      142.05073056    -122.01457627      18.85638905        3        1
Se     142.99137433    -120.34510801      20.53566545        4        1
Se     142.99137433    -120.34510801      17.17711265        5        1
W      139.21790724    -120.41845536      18.85638905        3        1
Se     140.15855102    -118.74898710      20.53566545        4        1
Se     140.15855102    -118.74898710      17.17711265        5        1
W      136.38508393    -118.82233445      18.85638905        3        1
Se     137.32572770    -117.15286619      20.53566545        4        1
Se     137.32572770    -117.15286619      17.17711265        5        1
W      133.55226061    -117.22621354      18.85638905        3        1
Se     134.49290439    -115.55674528      20.53566545        4        1
Se     134.49290439    -115.55674528      17.17711265        5        1
W      130.71943730    -115.63009263      18.85638905        3        1
Se     131.66008107    -113.96062437      20.53566545        4        1
Se     131.66008107    -113.96062437      17.17711265        5        1
W      127.88661398    -114.03397172      18.85638905        3        1
Se     128.82725776    -112.36450346      20.53566545        4        1
Se     128.82725776    -112.36450346      17.17711265        5        1
W      125.05379067    -112.43785081      18.85638905        3        1
Se     125.99443444    -110.76838255      20.53566545        4        1
Se     125.99443444    -110.76838255      17.17711265        5        1
W      122.22096735    -110.84172990      18.85638905        3        1
Se     123.16161113    -109.17226164      20.53566545        4        1
Se     123.16161113    -109.17226164      17.17711265        5        1
W      119.38814404    -109.24560899      18.85638905        3        1
Se     120.32878781    -107.57614073      20.53566545        4        1
Se     120.32878781    -107.57614073      17.17711265        5        1
W      116.55532073    -107.64948808      18.85638905        3        1
Se     117.49596450    -105.98001982      20.53566545        4        1
Se     117.49596450    -105.98001982      17.17711265        5        1
W      113.72249741    -106.05336717      18.85638905        3        1
Se     114.66314118    -104.38389891      20.53566545        4        1
Se     114.66314118    -104.38389891      17.17711265        5        1
W      110.88967410    -104.45724626      18.85638905        3        1
Se     111.83031787    -102.78777800      20.53566545        4        1
Se     111.83031787    -102.78777800      17.17711265        5        1
W      108.05685078    -102.86112535      18.85638905        3        1
Se     108.99749455    -101.19165709      20.53566545        4        1
Se     108.99749455    -101.19165709      17.17711265        5        1
W      105.22402747    -101.26500444      18.85638905        3        1
Se     106.16467124     -99.59553618      20.53566545        4        1
Se     106.16467124     -99.59553618      17.17711265        5        1
W      102.39120415     -99.66888352      18.85638905        3        1
Se     103.33184793     -97.99941527      20.53566545        4        1
Se     103.33184793     -97.99941527      17.17711265        5        1
W       99.55838084     -98.07276261      18.85638905        3        1
Se     100.49902461     -96.40329436      20.53566545        4        1
Se     100.49902461     -96.40329436      17.17711265        5        1
W       96.72555752     -96.47664170      18.85638905        3        1
Se      97.66620130     -94.80717345      20.53566545        4        1
Se      97.66620130     -94.80717345      17.17711265        5        1
W       93.89273421     -94.88052079      18.85638905        3        1
Se      94.83337798     -93.21105254      20.53566545        4        1
Se      94.83337798     -93.21105254      17.17711265        5        1
W       91.05991089     -93.28439988      18.85638905        3        1
Se      92.00055467     -91.61493162      20.53566545        4        1
Se      92.00055467     -91.61493162      17.17711265        5        1
W       88.22708758     -91.68827897      18.85638905        3        1
Se      89.16773135     -90.01881071      20.53566545        4        1
Se      89.16773135     -90.01881071      17.17711265        5        1
W       85.39426426     -90.09215806      18.85638905        3        1
Se      86.33490804     -88.42268980      20.53566545        4        1
Se      86.33490804     -88.42268980      17.17711265        5        1
W       82.56144095     -88.49603715      18.85638905        3        1
Se      83.50208472     -86.82656889      20.53566545        4        1
Se      83.50208472     -86.82656889      17.17711265        5        1
W       79.72861763     -86.89991624      18.85638905        3        1
Se      80.66926141     -85.23044798      20.53566545        4        1
Se      80.66926141     -85.23044798      17.17711265        5        1
W       76.89579432     -85.30379533      18.85638905        3        1
Se      77.83643809     -83.63432707      20.53566545        4        1
Se      77.83643809     -83.63432707      17.17711265        5        1
W       74.06297100     -83.70767442      18.85638905        3        1
Se      75.00361478     -82.03820616      20.53566545        4        1
Se      75.00361478     -82.03820616      17.17711265        5        1
W       71.23014769     -82.11155351      18.85638905        3        1
Se      72.17079146     -80.44208525      20.53566545        4        1
Se      72.17079146     -80.44208525      17.17711265        5        1
W       68.39732437     -80.51543260      18.85638905        3        1
Se      69.33796815     -78.84596434      20.53566545        4        1
Se      69.33796815     -78.84596434      17.17711265        5        1
W       65.56450106     -78.91931169      18.85638905        3        1
Se      66.50514483     -77.24984343      20.53566545        4        1
Se      66.50514483     -77.24984343      17.17711265        5        1
W       62.73167774     -77.32319078      18.85638905        3        1
Se      63.67232152     -75.65372252      20.53566545        4        1
Se      63.67232152     -75.65372252      17.17711265        5        1
W       59.89885443     -75.72706987      18.85638905        3        1
Se      60.83949820     -74.05760161      20.53566545        4        1
Se      60.83949820     -74.05760161      17.17711265        5        1
W       57.06603111     -74.13094896      18.85638905        3        1
Se      58.00667489     -72.46148070      20.53566545        4        1
Se      58.00667489     -72.46148070      17.17711265        5        1
W       54.23320780     -72.53482805      18.85638905        3        1
Se      55.17385157     -70.86535979      20.53566545        4        1
Se      55.17385157     -70.86535979      17.17711265        5        1
W       51.40038448     -70.93870713      18.85638905        3        1
Se      52.34102826     -69.26923888      20.53566545        4        1
Se      52.34102826     -69.26923888      17.17711265        5        1
W       48.56756117     -69.34258622      18.85638905        3        1
Se      49.50820494     -67.67311797      20.53566545        4        1
Se      49.50820494     -67.67311797      17.17711265        5        1
W       45.73473785     -67.74646531      18.85638905        3        1
Se      46.67538163     -66.07699706      20.53566545        4        1
Se      46.67538163     -66.07699706      17.17711265        5        1
W       42.90191454     -66.15034440      18.85638905        3        1
Se      43.84255831     -64.48087615      20.53566545        4        1
Se      43.84255831     -64.48087615      17.17711265        5        1
W       40.06909122     -64.55422349      18.85638905        3        1
Se      41.00973500     -62.88475524      20.53566545        4        1
Se      41.00973500     -62.88475524      17.17711265        5        1
W       37.23626791     -62.95810258      18.85638905        3        1
Se      38.17691168     -61.28863432      20.53566545        4        1
Se      38.17691168     -61.28863432      17.17711265        5        1
W      189.28720607     -61.36198167      18.85638905        3        1
Se      35.34408837     -59.69251341      20.53566545        4        1
Se      35.34408837     -59.69251341      17.17711265        5        1
W      186.45438276     -59.76586076      18.85638905        3        1
Se     187.39502653     -58.09639250      20.53566545        4        1
Se     187.39502653     -58.09639250      17.17711265        5        1
W       92.90295257      -0.59115589      18.85638905        3        1
Se     171.28547708    -133.05495971      20.53566545        4        1
Se     171.28547708    -133.05495971      17.17711265        5        1
W      167.51200999    -133.12830706      18.85638905        3        1
Se     168.45265377    -131.45883880      20.53566545        4        1
Se     168.45265377    -131.45883880      17.17711265        5        1
W      164.67918668    -131.53218615      18.85638905        3        1
Se     165.61983045    -129.86271789      20.53566545        4        1
Se     165.61983045    -129.86271789      17.17711265        5        1
W      161.84636336    -129.93606524      18.85638905        3        1
Se     162.78700714    -128.26659698      20.53566545        4        1
Se     162.78700714    -128.26659698      17.17711265        5        1
W      159.01354005    -128.33994433      18.85638905        3        1
Se     159.95418382    -126.67047607      20.53566545        4        1
Se     159.95418382    -126.67047607      17.17711265        5        1
W      156.18071673    -126.74382341      18.85638905        3        1
Se     157.12136051    -125.07435516      20.53566545        4        1
Se     157.12136051    -125.07435516      17.17711265        5        1
W      153.34789342    -125.14770250      18.85638905        3        1
Se     154.28853719    -123.47823425      20.53566545        4        1
Se     154.28853719    -123.47823425      17.17711265        5        1
W      150.51507010    -123.55158159      18.85638905        3        1
Se     151.45571388    -121.88211334      20.53566545        4        1
Se     151.45571388    -121.88211334      17.17711265        5        1
W      147.68224679    -121.95546068      18.85638905        3        1
Se     148.62289056    -120.28599243      20.53566545        4        1
Se     148.62289056    -120.28599243      17.17711265        5        1
W      144.84942347    -120.35933977      18.85638905        3        1
Se     145.79006725    -118.68987151      20.53566545        4        1
Se     145.79006725    -118.68987151      17.17711265        5        1
W      142.01660016    -118.76321886      18.85638905        3        1
Se     142.95724393    -117.09375060      20.53566545        4        1
Se     142.95724393    -117.09375060      17.17711265        5        1
W      139.18377684    -117.16709795      18.85638905        3        1
Se     140.12442062    -115.49762969      20.53566545        4        1
Se     140.12442062    -115.49762969      17.17711265        5        1
W      136.35095353    -115.57097704      18.85638905        3        1
Se     137.29159730    -113.90150878      20.53566545        4        1
Se     137.29159730    -113.90150878      17.17711265        5        1
W      133.51813021    -113.97485613      18.85638905        3        1
Se     134.45877399    -112.30538787      20.53566545        4        1
Se     134.45877399    -112.30538787      17.17711265        5        1
W      130.68530690    -112.37873522      18.85638905        3        1
Se     131.62595067    -110.70926696      20.53566545        4        1
Se     131.62595067    -110.70926696      17.17711265        5        1
W      127.85248358    -110.78261431      18.85638905        3        1
Se     128.79312736    -109.11314605      20.53566545        4        1
Se     128.79312736    -109.11314605      17.17711265        5        1
W      125.01966027    -109.18649340      18.85638905        3        1
Se     125.96030404    -107.51702514      20.53566545        4        1
Se     125.96030404    -107.51702514      17.17711265        5        1
W      122.18683695    -107.59037249      18.85638905        3        1
Se     123.12748073    -105.92090423      20.53566545        4        1
Se     123.12748073    -105.92090423      17.17711265        5        1
W      119.35401364    -105.99425158      18.85638905        3        1
Se     120.29465741    -104.32478332      20.53566545        4        1
Se     120.29465741    -104.32478332      17.17711265        5        1
W      116.52119032    -104.39813067      18.85638905        3        1
Se     117.46183410    -102.72866241      20.53566545        4        1
Se     117.46183410    -102.72866241      17.17711265        5        1
W      113.68836701    -102.80200976      18.85638905        3        1
Se     114.62901078    -101.13254150      20.53566545        4        1
Se     114.62901078    -101.13254150      17.17711265        5        1
W      110.85554369    -101.20588885      18.85638905        3        1
Se     111.79618747     -99.53642059      20.53566545        4        1
Se     111.79618747     -99.53642059      17.17711265        5        1
W      108.02272038     -99.60976794      18.85638905        3        1
Se     108.96336415     -97.94029968      20.53566545        4        1
Se     108.96336415     -97.94029968      17.17711265        5        1
W      105.18989706     -98.01364702      18.85638905        3        1
Se     106.13054084     -96.34417877      20.53566545        4        1
Se     106.13054084     -96.34417877      17.17711265        5        1
W      102.35707375     -96.41752611      18.85638905        3        1
Se     103.29771752     -94.74805786      20.53566545        4        1
Se     103.29771752     -94.74805786      17.17711265        5        1
W       99.52425043     -94.82140520      18.85638905        3        1
Se     100.46489421     -93.15193695      20.53566545        4        1
Se     100.46489421     -93.15193695      17.17711265        5        1
W       96.69142712     -93.22528429      18.85638905        3        1
Se      97.63207089     -91.55581604      20.53566545        4        1
Se      97.63207089     -91.55581604      17.17711265        5        1
W       93.85860380     -91.62916338      18.85638905        3        1
Se      94.79924758     -89.95969513      20.53566545        4        1
Se      94.79924758     -89.95969513      17.17711265        5        1
W       91.02578049     -90.03304247      18.85638905        3        1
Se      91.96642426     -88.36357421      20.53566545        4        1
Se      91.96642426     -88.36357421      17.17711265        5        1
W       88.19295718     -88.43692156      18.85638905        3        1
Se      89.13360095     -86.76745330      20.53566545        4        1
Se      89.13360095     -86.76745330      17.17711265        5        1
W       85.36013386     -86.84080065      18.85638905        3        1
Se      86.30077763     -85.17133239      20.53566545        4        1
Se      86.30077763     -85.17133239      17.17711265        5        1
W       82.52731055     -85.24467974      18.85638905        3        1
Se      83.46795432     -83.57521148      20.53566545        4        1
Se      83.46795432     -83.57521148      17.17711265        5        1
W       79.69448723     -83.64855883      18.85638905        3        1
Se      80.63513101     -81.97909057      20.53566545        4        1
Se      80.63513101     -81.97909057      17.17711265        5        1
W       76.86166392     -82.05243792      18.85638905        3        1
Se      77.80230769     -80.38296966      20.53566545        4        1
Se      77.80230769     -80.38296966      17.17711265        5        1
W       74.02884060     -80.45631701      18.85638905        3        1
Se      74.96948438     -78.78684875      20.53566545        4        1
Se      74.96948438     -78.78684875      17.17711265        5        1
W       71.19601729     -78.86019610      18.85638905        3        1
Se      72.13666106     -77.19072784      20.53566545        4        1
Se      72.13666106     -77.19072784      17.17711265        5        1
W       68.36319397     -77.26407519      18.85638905        3        1
Se      69.30383775     -75.59460693      20.53566545        4        1
Se      69.30383775     -75.59460693      17.17711265        5        1
W       65.53037066     -75.66795428      18.85638905        3        1
Se      66.47101443     -73.99848602      20.53566545        4        1
Se      66.47101443     -73.99848602      17.17711265        5        1
W       62.69754734     -74.07183337      18.85638905        3        1
Se      63.63819112     -72.40236511      20.53566545        4        1
Se      63.63819112     -72.40236511      17.17711265        5        1
W       59.86472403     -72.47571246      18.85638905        3        1
Se      60.80536780     -70.80624420      20.53566545        4        1
Se      60.80536780     -70.80624420      17.17711265        5        1
W       57.03190071     -70.87959155      18.85638905        3        1
Se      57.97254449     -69.21012329      20.53566545        4        1
Se      57.97254449     -69.21012329      17.17711265        5        1
W       54.19907740     -69.28347064      18.85638905        3        1
Se      55.13972117     -67.61400238      20.53566545        4        1
Se      55.13972117     -67.61400238      17.17711265        5        1
W       51.36625408     -67.68734972      18.85638905        3        1
Se      52.30689786     -66.01788147      20.53566545        4        1
Se      52.30689786     -66.01788147      17.17711265        5        1
W       48.53343077     -66.09122881      18.85638905        3        1
Se      49.47407454     -64.42176056      20.53566545        4        1
Se      49.47407454     -64.42176056      17.17711265        5        1
W       45.70060745     -64.49510790      18.85638905        3        1
Se      46.64125123     -62.82563965      20.53566545        4        1
Se      46.64125123     -62.82563965      17.17711265        5        1
W       42.86778414     -62.89898699      18.85638905        3        1
Se      43.80842791     -61.22951874      20.53566545        4        1
Se      43.80842791     -61.22951874      17.17711265        5        1
W       40.03496082     -61.30286608      18.85638905        3        1
Se      40.97560460     -59.63339782      20.53566545        4        1
Se      40.97560460     -59.63339782      17.17711265        5        1
W       37.20213751     -59.70674517      18.85638905        3        1
Se      38.14278128     -58.03727691      20.53566545        4        1
Se      38.14278128     -58.03727691      17.17711265        5        1
W       34.36931419     -58.11062426      18.85638905        3        1
Se      35.30995797     -56.44115600      20.53566545        4        1
Se      35.30995797     -56.44115600      17.17711265        5        1
W      186.42025236     -56.51450335      18.85638905        3        1
Se      32.47713465     -54.84503509      20.53566545        4        1
Se      32.47713465     -54.84503509      17.17711265        5        1
W      183.58742904     -54.91838244      18.85638905        3        1
Se     184.52807282     -53.24891418      20.53566545        4        1
Se     184.52807282     -53.24891418      17.17711265        5        1
W       98.53446879      -0.53204030      18.85638905        3        1
Se     176.91699331    -132.99584412      20.53566545        4        1
Se     176.91699331    -132.99584412      17.17711265        5        1
W      173.14352622    -133.06919147      18.85638905        3        1
Se     174.08416999    -131.39972321      20.53566545        4        1
Se     174.08416999    -131.39972321      17.17711265        5        1
W      170.31070290    -131.47307056      18.85638905        3        1
Se     171.25134668    -129.80360230      20.53566545        4        1
Se     171.25134668    -129.80360230      17.17711265        5        1
W      167.47787959    -129.87694965      18.85638905        3        1
Se     168.41852336    -128.20748139      20.53566545        4        1
Se     168.41852336    -128.20748139      17.17711265        5        1
W      164.64505627    -128.28082874      18.85638905        3        1
Se     165.58570005    -126.61136048      20.53566545        4        1
Se     165.58570005    -126.61136048      17.17711265        5        1
W      161.81223296    -126.68470783      18.85638905        3        1
Se     162.75287673    -125.01523957      20.53566545        4        1
Se     162.75287673    -125.01523957      17.17711265        5        1
W      158.97940964    -125.08858691      18.85638905        3        1
Se     159.92005342    -123.41911866      20.53566545        4        1
Se     159.92005342    -123.41911866      17.17711265        5        1
W      156.14658633    -123.49246600      18.85638905        3        1
Se     157.08723010    -121.82299775      20.53566545        4        1
Se     157.08723010    -121.82299775      17.17711265        5        1
W      153.31376302    -121.89634509      18.85638905        3        1
Se     154.25440679    -120.22687684      20.53566545        4        1
Se     154.25440679    -120.22687684      17.17711265        5        1
W      150.48093970    -120.30022418      18.85638905        3        1
Se     151.42158347    -118.63075593      20.53566545        4        1
Se     151.42158347    -118.63075593      17.17711265        5        1
W      147.64811639    -118.70410327      18.85638905        3        1
Se     148.58876016    -117.03463501      20.53566545        4        1
Se     148.58876016    -117.03463501      17.17711265        5        1
W      144.81529307    -117.10798236      18.85638905        3        1
Se     145.75593685    -115.43851410      20.53566545        4        1
Se     145.75593685    -115.43851410      17.17711265        5        1
W      141.98246976    -115.51186145      18.85638905        3        1
Se     142.92311353    -113.84239319      20.53566545        4        1
Se     142.92311353    -113.84239319      17.17711265        5        1
W      139.14964644    -113.91574054      18.85638905        3        1
Se     140.09029022    -112.24627228      20.53566545        4        1
Se     140.09029022    -112.24627228      17.17711265        5        1
W      136.31682313    -112.31961963      18.85638905        3        1
Se     137.25746690    -110.65015137      20.53566545        4        1
Se     137.25746690    -110.65015137      17.17711265        5        1
W      133.48399981    -110.72349872      18.85638905        3        1
Se     134.42464359    -109.05403046      20.53566545        4        1
Se     134.42464359    -109.05403046      17.17711265        5        1
W      130.65117650    -109.12737781      18.85638905        3        1
Se     131.59182027    -107.45790955      20.53566545        4        1
Se     131.59182027    -107.45790955      17.17711265        5        1
W      127.81835318    -107.53125690      18.85638905        3        1
Se     128.75899696    -105.86178864      20.53566545        4        1
Se     128.75899696    -105.86178864      17.17711265        5        1
W      124.98552987    -105.93513599      18.85638905        3        1
Se     125.92617364    -104.26566773      20.53566545        4        1
Se     125.92617364    -104.26566773      17.17711265        5        1
W      122.15270655    -104.33901508      18.85638905        3        1
Se     123.09335033    -102.66954682      20.53566545        4        1
Se     123.09335033    -102.66954682      17.17711265        5        1
W      119.31988324    -102.74289417      18.85638905        3        1
Se     120.26052701    -101.07342591      20.53566545        4        1
Se     120.26052701    -101.07342591      17.17711265        5        1
W      116.48705992    -101.14677326      18.85638905        3        1
Se     117.42770370     -99.47730500      20.53566545        4        1
Se     117.42770370     -99.47730500      17.17711265        5        1
W      113.65423661     -99.55065235      18.85638905        3        1
Se     114.59488038     -97.88118409      20.53566545        4        1
Se     114.59488038     -97.88118409      17.17711265        5        1
W      110.82141329     -97.95453144      18.85638905        3        1
Se     111.76205707     -96.28506318      20.53566545        4        1
Se     111.76205707     -96.28506318      17.17711265        5        1
W      107.98858998     -96.35841053      18.85638905        3        1
Se     108.92923375     -94.68894227      20.53566545        4        1
Se     108.92923375     -94.68894227      17.17711265        5        1
W      105.15576666     -94.76228961      18.85638905        3        1
Se     106.09641044     -93.09282136      20.53566545        4        1
Se     106.09641044     -93.09282136      17.17711265        5        1
W      102.32294335     -93.16616870      18.85638905        3        1
Se     103.26358712     -91.49670045      20.53566545        4        1
Se     103.26358712     -91.49670045      17.17711265        5        1
W       99.49012003     -91.57004779      18.85638905        3        1
Se     100.43076381     -89.90057954      20.53566545        4        1
Se     100.43076381     -89.90057954      17.17711265        5        1
W       96.65729672     -89.97392688      18.85638905        3        1
Se      97.59794049     -88.30445863      20.53566545        4        1
Se      97.59794049     -88.30445863      17.17711265        5        1
W       93.82447340     -88.37780597      18.85638905        3        1
Se      94.76511718     -86.70833771      20.53566545        4        1
Se      94.76511718     -86.70833771      17.17711265        5        1
W       90.99165009     -86.78168506      18.85638905        3        1
Se      91.93229386     -85.11221680      20.53566545        4        1
Se      91.93229386     -85.11221680      17.17711265        5        1
W       88.15882677     -85.18556415      18.85638905        3        1
Se      89.09947055     -83.51609589      20.53566545        4        1
Se      89.09947055     -83.51609589      17.17711265        5        1
W       85.32600346     -83.58944324      18.85638905        3        1
Se      86.26664723     -81.91997498      20.53566545        4        1
Se      86.26664723     -81.91997498      17.17711265        5        1
W       82.49318014     -81.99332233      18.85638905        3        1
Se      83.43382392     -80.32385407      20.53566545        4        1
Se      83.43382392     -80.32385407      17.17711265        5        1
W       79.66035683     -80.39720142      18.85638905        3        1
Se      80.60100060     -78.72773316      20.53566545        4        1
Se      80.60100060     -78.72773316      17.17711265        5        1
W       76.82753351     -78.80108051      18.85638905        3        1
Se      77.76817729     -77.13161225      20.53566545        4        1
Se      77.76817729     -77.13161225      17.17711265        5        1
W       73.99471020     -77.20495960      18.85638905        3        1
Se      74.93535397     -75.53549134      20.53566545        4        1
Se      74.93535397     -75.53549134      17.17711265        5        1
W       71.16188688     -75.60883869      18.85638905        3        1
Se      72.10253066     -73.93937043      20.53566545        4        1
Se      72.10253066     -73.93937043      17.17711265        5        1
W       68.32906357     -74.01271778      18.85638905        3        1
Se      69.26970734     -72.34324952      20.53566545        4        1
Se      69.26970734     -72.34324952      17.17711265        5        1
W       65.49624026     -72.41659687      18.85638905        3        1
Se      66.43688403     -70.74712861      20.53566545        4        1
Se      66.43688403     -70.74712861      17.17711265        5        1
W       62.66341694     -70.82047596      18.85638905        3        1
Se      63.60406071     -69.15100770      20.53566545        4        1
Se      63.60406071     -69.15100770      17.17711265        5        1
W       59.83059363     -69.22435505      18.85638905        3        1
Se      60.77123740     -67.55488679      20.53566545        4        1
Se      60.77123740     -67.55488679      17.17711265        5        1
W       56.99777031     -67.62823414      18.85638905        3        1
Se      57.93841409     -65.95876588      20.53566545        4        1
Se      57.93841409     -65.95876588      17.17711265        5        1
W       54.16494700     -66.03211322      18.85638905        3        1
Se      55.10559077     -64.36264497      20.53566545        4        1
Se      55.10559077     -64.36264497      17.17711265        5        1
W       51.33212368     -64.43599231      18.85638905        3        1
Se      52.27276746     -62.76652406      20.53566545        4        1
Se      52.27276746     -62.76652406      17.17711265        5        1
W       48.49930037     -62.83987140      18.85638905        3        1
Se      49.43994414     -61.17040315      20.53566545        4        1
Se      49.43994414     -61.17040315      17.17711265        5        1
W       45.66647705     -61.24375049      18.85638905        3        1
Se      46.60712083     -59.57428224      20.53566545        4        1
Se      46.60712083     -59.57428224      17.17711265        5        1
W       42.83365374     -59.64762958      18.85638905        3        1
Se      43.77429751     -57.97816133      20.53566545        4        1
Se      43.77429751     -57.97816133      17.17711265        5        1
W       40.00083042     -58.05150867      18.85638905        3        1
Se      40.94147420     -56.38204041      20.53566545        4        1
Se      40.94147420     -56.38204041      17.17711265        5        1
W       37.16800711     -56.45538776      18.85638905        3        1
Se      38.10865088     -54.78591950      20.53566545        4        1
Se      38.10865088     -54.78591950      17.17711265        5        1
W       34.33518379     -54.85926685      18.85638905        3        1
Se      35.27582757     -53.18979859      20.53566545        4        1
Se      35.27582757     -53.18979859      17.17711265        5        1
W       31.50236048     -53.26314594      18.85638905        3        1
Se      32.44300425     -51.59367768      20.53566545        4        1
Se      32.44300425     -51.59367768      17.17711265        5        1
W      183.55329864     -51.66702503      18.85638905        3        1
Se      29.61018094     -49.99755677      20.53566545        4        1
Se      29.61018094     -49.99755677      17.17711265        5        1
W      180.72047533     -50.07090412      18.85638905        3        1
Se     181.66111910     -48.40143586      20.53566545        4        1
Se     181.66111910     -48.40143586      17.17711265        5        1
W      104.16598502      -0.47292471      18.85638905        3        1
Se     182.54850954    -132.93672853      20.53566545        4        1
Se     182.54850954    -132.93672853      17.17711265        5        1
W      178.77504245    -133.01007588      18.85638905        3        1
Se     179.71568622    -131.34060762      20.53566545        4        1
Se     179.71568622    -131.34060762      17.17711265        5        1
W      175.94221913    -131.41395497      18.85638905        3        1
Se     176.88286291    -129.74448671      20.53566545        4        1
Se     176.88286291    -129.74448671      17.17711265        5        1
W      173.10939582    -129.81783406      18.85638905        3        1
Se     174.05003959    -128.14836580      20.53566545        4        1
Se     174.05003959    -128.14836580      17.17711265        5        1
W      170.27657250    -128.22171315      18.85638905        3        1
Se     171.21721628    -126.55224489      20.53566545        4        1
Se     171.21721628    -126.55224489      17.17711265        5        1
W      167.44374919    -126.62559224      18.85638905        3        1
Se     168.38439296    -124.95612398      20.53566545        4        1
Se     168.38439296    -124.95612398      17.17711265        5        1
W      164.61092587    -125.02947133      18.85638905        3        1
Se     165.55156965    -123.36000307      20.53566545        4        1
Se     165.55156965    -123.36000307      17.17711265        5        1
W      161.77810256    -123.43335041      18.85638905        3        1
Se     162.71874633    -121.76388216      20.53566545        4        1
Se     162.71874633    -121.76388216      17.17711265        5        1
W      158.94527924    -121.83722950      18.85638905        3        1
Se     159.88592302    -120.16776125      20.53566545        4        1
Se     159.88592302    -120.16776125      17.17711265        5        1
W      156.11245593    -120.24110859      18.85638905        3        1
Se     157.05309970    -118.57164034      20.53566545        4        1
Se     157.05309970    -118.57164034      17.17711265        5        1
W      153.27963261    -118.64498768      18.85638905        3        1
Se     154.22027639    -116.97551943      20.53566545        4        1
Se     154.22027639    -116.97551943      17.17711265        5        1
W      150.44680930    -117.04886677      18.85638905        3        1
Se     151.38745307    -115.37939852      20.53566545        4        1
Se     151.38745307    -115.37939852      17.17711265        5        1
W      147.61398598    -115.45274586      18.85638905        3        1
Se     148.55462976    -113.78327760      20.53566545        4        1
Se     148.55462976    -113.78327760      17.17711265        5        1
W      144.78116267    -113.85662495      18.85638905        3        1
Se     145.72180644    -112.18715669      20.53566545        4        1
Se     145.72180644    -112.18715669      17.17711265        5        1
W      141.94833935    -112.26050404      18.85638905        3        1
Se     142.88898313    -110.59103578      20.53566545        4        1
Se     142.88898313    -110.59103578      17.17711265        5        1
W      139.11551604    -110.66438313      18.85638905        3        1
Se     140.05615981    -108.99491487      20.53566545        4        1
Se     140.05615981    -108.99491487      17.17711265        5        1
W      136.28269272    -109.06826222      18.85638905        3        1
Se     137.22333650    -107.39879396      20.53566545        4        1
Se     137.22333650    -107.39879396      17.17711265        5        1
W      133.44986941    -107.47214131      18.85638905        3        1
Se     134.39051318    -105.80267305      20.53566545        4        1
Se     134.39051318    -105.80267305      17.17711265        5        1
W      130.61704610    -105.87602040      18.85638905        3        1
Se     131.55768987    -104.20655214      20.53566545        4        1
Se     131.55768987    -104.20655214      17.17711265        5        1
W      127.78422278    -104.27989949      18.85638905        3        1
Se     128.72486655    -102.61043123      20.53566545        4        1
Se     128.72486655    -102.61043123      17.17711265        5        1
W      124.95139947    -102.68377858      18.85638905        3        1
Se     125.89204324    -101.01431032      20.53566545        4        1
Se     125.89204324    -101.01431032      17.17711265        5        1
W      122.11857615    -101.08765767      18.85638905        3        1
Se     123.05921993     -99.41818941      20.53566545        4        1
Se     123.05921993     -99.41818941      17.17711265        5        1
W      119.28575284     -99.49153676      18.85638905        3        1
Se     120.22639661     -97.82206850      20.53566545        4        1
Se     120.22639661     -97.82206850      17.17711265        5        1
W      116.45292952     -97.89541585      18.85638905        3        1
Se     117.39357330     -96.22594759      20.53566545        4        1
Se     117.39357330     -96.22594759      17.17711265        5        1
W      113.62010621     -96.29929494      18.85638905        3        1
Se     114.56074998     -94.62982668      20.53566545        4        1
Se     114.56074998     -94.62982668      17.17711265        5        1
W      110.78728289     -94.70317403      18.85638905        3        1
Se     111.72792667     -93.03370577      20.53566545        4        1
Se     111.72792667     -93.03370577      17.17711265        5        1
W      107.95445958     -93.10705311      18.85638905        3        1
Se     108.89510335     -91.43758486      20.53566545        4        1
Se     108.89510335     -91.43758486      17.17711265        5        1
W      105.12163626     -91.51093220      18.85638905        3        1
Se     106.06228004     -89.84146395      20.53566545        4        1
Se     106.06228004     -89.84146395      17.17711265        5        1
W      102.28881295     -89.91481129      18.85638905        3        1
Se     103.22945672     -88.24534304      20.53566545        4        1
Se     103.22945672     -88.24534304      17.17711265        5        1
W       99.45598963     -88.31869038      18.85638905        3        1
Se     100.39663341     -86.64922213      20.53566545        4        1
Se     100.39663341     -86.64922213      17.17711265        5        1
W       96.62316632     -86.72256947      18.85638905        3        1
Se      97.56381009     -85.05310121      20.53566545        4        1
Se      97.56381009     -85.05310121      17.17711265        5        1
W       93.79034300     -85.12644856      18.85638905        3        1
Se      94.73098678     -83.45698030      20.53566545        4        1
Se      94.73098678     -83.45698030      17.17711265        5        1
W       90.95751969     -83.53032765      18.85638905        3        1
Se      91.89816346     -81.86085939      20.53566545        4        1
Se      91.89816346     -81.86085939      17.17711265        5        1
W       88.12469637     -81.93420674      18.85638905        3        1
Se      89.06534015     -80.26473848      20.53566545        4        1
Se      89.06534015     -80.26473848      17.17711265        5        1
W       85.29187306     -80.33808583      18.85638905        3        1
Se      86.23251683     -78.66861757      20.53566545        4        1
Se      86.23251683     -78.66861757      17.17711265        5        1
W       82.45904974     -78.74196492      18.85638905        3        1
Se      83.39969352     -77.07249666      20.53566545        4        1
Se      83.39969352     -77.07249666      17.17711265        5        1
W       79.62622643     -77.14584401      18.85638905        3        1
Se      80.56687020     -75.47637575      20.53566545        4        1
Se      80.56687020     -75.47637575      17.17711265        5        1
W       76.79340311     -75.54972310      18.85638905        3        1
Se      77.73404689     -73.88025484      20.53566545        4        1
Se      77.73404689     -73.88025484      17.17711265        5        1
W       73.96057980     -73.95360219      18.85638905        3        1
Se      74.90122357     -72.28413393      20.53566545        4        1
Se      74.90122357     -72.28413393      17.17711265        5        1
W       71.12775648     -72.35748128      18.85638905        3        1
Se      72.06840026     -70.68801302      20.53566545        4        1
Se      72.06840026     -70.68801302      17.17711265        5        1
W       68.29493317     -70.76136037      18.85638905        3        1
Se      69.23557694     -69.09189211      20.53566545        4        1
Se      69.23557694     -69.09189211      17.17711265        5        1
W       65.46210985     -69.16523946      18.85638905        3        1
Se      66.40275363     -67.49577120      20.53566545        4        1
Se      66.40275363     -67.49577120      17.17711265        5        1
W       62.62928654     -67.56911855      18.85638905        3        1
Se      63.56993031     -65.89965029      20.53566545        4        1
Se      63.56993031     -65.89965029      17.17711265        5        1
W       59.79646322     -65.97299764      18.85638905        3        1
Se      60.73710700     -64.30352938      20.53566545        4        1
Se      60.73710700     -64.30352938      17.17711265        5        1
W       56.96363991     -64.37687672      18.85638905        3        1
Se      57.90428368     -62.70740847      20.53566545        4        1
Se      57.90428368     -62.70740847      17.17711265        5        1
W       54.13081659     -62.78075581      18.85638905        3        1
Se      55.07146037     -61.11128756      20.53566545        4        1
Se      55.07146037     -61.11128756      17.17711265        5        1
W       51.29799328     -61.18463490      18.85638905        3        1
Se      52.23863705     -59.51516665      20.53566545        4        1
Se      52.23863705     -59.51516665      17.17711265        5        1
W       48.46516996     -59.58851399      18.85638905        3        1
Se      49.40581374     -57.91904574      20.53566545        4        1
Se      49.40581374     -57.91904574      17.17711265        5        1
W       45.63234665     -57.99239308      18.85638905        3        1
Se      46.57299042     -56.32292483      20.53566545        4        1
Se      46.57299042     -56.32292483      17.17711265        5        1
W       42.79952334     -56.39627217      18.85638905        3        1
Se      43.74016711     -54.72680391      20.53566545        4        1
Se      43.74016711     -54.72680391      17.17711265        5        1
W       39.96670002     -54.80015126      18.85638905        3        1
Se      40.90734379     -53.13068300      20.53566545        4        1
Se      40.90734379     -53.13068300      17.17711265        5        1
W       37.13387671     -53.20403035      18.85638905        3        1
Se      38.07452048     -51.53456209      20.53566545        4        1
Se      38.07452048     -51.53456209      17.17711265        5        1
W       34.30105339     -51.60790944      18.85638905        3        1
Se      35.24169716     -49.93844118      20.53566545        4        1
Se      35.24169716     -49.93844118      17.17711265        5        1
W       31.46823008     -50.01178853      18.85638905        3        1
Se      32.40887385     -48.34232027      20.53566545        4        1
Se      32.40887385     -48.34232027      17.17711265        5        1
W       28.63540676     -48.41566762      18.85638905        3        1
Se      29.57605054     -46.74619936      20.53566545        4        1
Se      29.57605054     -46.74619936      17.17711265        5        1
W      180.68634492     -46.81954671      18.85638905        3        1
Se      26.74322722     -45.15007845      20.53566545        4        1
Se      26.74322722     -45.15007845      17.17711265        5        1
W      177.85352161     -45.22342580      18.85638905        3        1
Se     178.79416538     -43.55395754      20.53566545        4        1
Se     178.79416538     -43.55395754      17.17711265        5        1
W      109.79750125      -0.41380912      18.85638905        3        1
Se     188.18002576    -132.87761294      20.53566545        4        1
Se     188.18002576    -132.87761294      17.17711265        5        1
W      184.40655868    -132.95096029      18.85638905        3        1
Se     185.34720245    -131.28149203      20.53566545        4        1
Se     185.34720245    -131.28149203      17.17711265        5        1
W      181.57373536    -131.35483938      18.85638905        3        1
Se     182.51437914    -129.68537112      20.53566545        4        1
Se     182.51437914    -129.68537112      17.17711265        5        1
W      178.74091205    -129.75871847      18.85638905        3        1
Se     179.68155582    -128.08925021      20.53566545        4        1
Se     179.68155582    -128.08925021      17.17711265        5        1
W      175.90808873    -128.16259756      18.85638905        3        1
Se     176.84873251    -126.49312930      20.53566545        4        1
Se     176.84873251    -126.49312930      17.17711265        5        1
W      173.07526542    -126.56647665      18.85638905        3        1
Se     174.01590919    -124.89700839      20.53566545        4        1
Se     174.01590919    -124.89700839      17.17711265        5        1
W      170.24244210    -124.97035574      18.85638905        3        1
Se     171.18308588    -123.30088748      20.53566545        4        1
Se     171.18308588    -123.30088748      17.17711265        5        1
W      167.40961879    -123.37423483      18.85638905        3        1
Se     168.35026256    -121.70476657      20.53566545        4        1
Se     168.35026256    -121.70476657      17.17711265        5        1
W      164.57679547    -121.77811392      18.85638905        3        1
Se     165.51743925    -120.10864566      20.53566545        4        1
Se     165.51743925    -120.10864566      17.17711265        5        1
W      161.74397216    -120.18199300      18.85638905        3        1
Se     162.68461593    -118.51252475      20.53566545        4        1
Se     162.68461593    -118.51252475      17.17711265        5        1
W      158.91114884    -118.58587209      18.85638905        3        1
Se     159.85179262    -116.91640384      20.53566545        4        1
Se     159.85179262    -116.91640384      17.17711265        5        1
W      156.07832553    -116.98975118      18.85638905        3        1
Se     157.01896930    -115.32028293      20.53566545        4        1
Se     157.01896930    -115.32028293      17.17711265        5        1
W      153.24550221    -115.39363027      18.85638905        3        1
Se     154.18614599    -113.72416202      20.53566545        4        1
Se     154.18614599    -113.72416202      17.17711265        5        1
W      150.41267890    -113.79750936      18.85638905        3        1
Se     151.35332267    -112.12804110      20.53566545        4        1
Se     151.35332267    -112.12804110      17.17711265        5        1
W      147.57985558    -112.20138845      18.85638905        3        1
Se     148.52049936    -110.53192019      20.53566545        4        1
Se     148.52049936    -110.53192019      17.17711265        5        1
W      144.74703227    -110.60526754      18.85638905        3        1
Se     145.68767604    -108.93579928      20.53566545        4        1
Se     145.68767604    -108.93579928      17.17711265        5        1
W      141.91420895    -109.00914663      18.85638905        3        1
Se     142.85485273    -107.33967837      20.53566545        4        1
Se     142.85485273    -107.33967837      17.17711265        5        1
W      139.08138564    -107.41302572      18.85638905        3        1
Se     140.02202941    -105.74355746      20.53566545        4        1
Se     140.02202941    -105.74355746      17.17711265        5        1
W      136.24856232    -105.81690481      18.85638905        3        1
Se     137.18920610    -104.14743655      20.53566545        4        1
Se     137.18920610    -104.14743655      17.17711265        5        1
W      133.41573901    -104.22078390      18.85638905        3        1
Se     134.35638278    -102.55131564      20.53566545        4        1
Se     134.35638278    -102.55131564      17.17711265        5        1
W      130.58291569    -102.62466299      18.85638905        3        1
Se     131.52355947    -100.95519473      20.53566545        4        1
Se     131.52355947    -100.95519473      17.17711265        5        1
W      127.75009238    -101.02854208      18.85638905        3        1
Se     128.69073615     -99.35907382      20.53566545        4        1
Se     128.69073615     -99.35907382      17.17711265        5        1
W      124.91726906     -99.43242117      18.85638905        3        1
Se     125.85791284     -97.76295291      20.53566545        4        1
Se     125.85791284     -97.76295291      17.17711265        5        1
W      122.08444575     -97.83630026      18.85638905        3        1
Se     123.02508952     -96.16683200      20.53566545        4        1
Se     123.02508952     -96.16683200      17.17711265        5        1
W      119.25162243     -96.24017935      18.85638905        3        1
Se     120.19226621     -94.57071109      20.53566545        4        1
Se     120.19226621     -94.57071109      17.17711265        5        1
W      116.41879912     -94.64405844      18.85638905        3        1
Se     117.35944289     -92.97459018      20.53566545        4        1
Se     117.35944289     -92.97459018      17.17711265        5        1
W      113.58597580     -93.04793753      18.85638905        3        1
Se     114.52661958     -91.37846927      20.53566545        4        1
Se     114.52661958     -91.37846927      17.17711265        5        1
W      110.75315249     -91.45181661      18.85638905        3        1
Se     111.69379626     -89.78234836      20.53566545        4        1
Se     111.69379626     -89.78234836      17.17711265        5        1
W      107.92032917     -89.85569570      18.85638905        3        1
Se     108.86097295     -88.18622745      20.53566545        4        1
Se     108.86097295     -88.18622745      17.17711265        5        1
W      105.08750586     -88.25957479      18.85638905        3        1
Se     106.02814963     -86.59010654      20.53566545        4        1
Se     106.02814963     -86.59010654      17.17711265        5        1
W      102.25468255     -86.66345388      18.85638905        3        1
Se     103.19532632     -84.99398563      20.53566545        4        1
Se     103.19532632     -84.99398563      17.17711265        5        1
W       99.42185923     -85.06733297      18.85638905        3        1
Se     100.36250300     -83.39786472      20.53566545        4        1
Se     100.36250300     -83.39786472      17.17711265        5        1
W       96.58903592     -83.47121206      18.85638905        3        1
Se      97.52967969     -81.80174380      20.53566545        4        1
Se      97.52967969     -81.80174380      17.17711265        5        1
W       93.75621260     -81.87509115      18.85638905        3        1
Se      94.69685638     -80.20562289      20.53566545        4        1
Se      94.69685638     -80.20562289      17.17711265        5        1
W       90.92338929     -80.27897024      18.85638905        3        1
Se      91.86403306     -78.60950198      20.53566545        4        1
Se      91.86403306     -78.60950198      17.17711265        5        1
W       88.09056597     -78.68284933      18.85638905        3        1
Se      89.03120975     -77.01338107      20.53566545        4        1
Se      89.03120975     -77.01338107      17.17711265        5        1
W       85.25774266     -77.08672842      18.85638905        3        1
Se      86.19838643     -75.41726016      20.53566545        4        1
Se      86.19838643     -75.41726016      17.17711265        5        1
W       82.42491934     -75.49060751      18.85638905        3        1
Se      83.36556312     -73.82113925      20.53566545        4        1
Se      83.36556312     -73.82113925      17.17711265        5        1
W       79.59209603     -73.89448660      18.85638905        3        1
Se      80.53273980     -72.22501834      20.53566545        4        1
Se      80.53273980     -72.22501834      17.17711265        5        1
W       76.75927271     -72.29836569      18.85638905        3        1
Se      77.69991649     -70.62889743      20.53566545        4        1
Se      77.69991649     -70.62889743      17.17711265        5        1
W       73.92644940     -70.70224478      18.85638905        3        1
Se      74.86709317     -69.03277652      20.53566545        4        1
Se      74.86709317     -69.03277652      17.17711265        5        1
W       71.09362608     -69.10612387      18.85638905        3        1
Se      72.03426986     -67.43665561      20.53566545        4        1
Se      72.03426986     -67.43665561      17.17711265        5        1
W       68.26080277     -67.51000296      18.85638905        3        1
Se      69.20144654     -65.84053470      20.53566545        4        1
Se      69.20144654     -65.84053470      17.17711265        5        1
W       65.42797945     -65.91388205      18.85638905        3        1
Se      66.36862323     -64.24441379      20.53566545        4        1
Se      66.36862323     -64.24441379      17.17711265        5        1
W       62.59515614     -64.31776114      18.85638905        3        1
Se      63.53579991     -62.64829288      20.53566545        4        1
Se      63.53579991     -62.64829288      17.17711265        5        1
W       59.76233282     -62.72164023      18.85638905        3        1
Se      60.70297660     -61.05217197      20.53566545        4        1
Se      60.70297660     -61.05217197      17.17711265        5        1
W       56.92950951     -61.12551931      18.85638905        3        1
Se      57.87015328     -59.45605106      20.53566545        4        1
Se      57.87015328     -59.45605106      17.17711265        5        1
W       54.09668619     -59.52939840      18.85638905        3        1
Se      55.03732997     -57.85993015      20.53566545        4        1
Se      55.03732997     -57.85993015      17.17711265        5        1
W       51.26386288     -57.93327749      18.85638905        3        1
Se      52.20450665     -56.26380924      20.53566545        4        1
Se      52.20450665     -56.26380924      17.17711265        5        1
W       48.43103956     -56.33715658      18.85638905        3        1
Se      49.37168334     -54.66768833      20.53566545        4        1
Se      49.37168334     -54.66768833      17.17711265        5        1
W       45.59821625     -54.74103567      18.85638905        3        1
Se      46.53886002     -53.07156741      20.53566545        4        1
Se      46.53886002     -53.07156741      17.17711265        5        1
W       42.76539293     -53.14491476      18.85638905        3        1
Se      43.70603671     -51.47544650      20.53566545        4        1
Se      43.70603671     -51.47544650      17.17711265        5        1
W       39.93256962     -51.54879385      18.85638905        3        1
Se      40.87321339     -49.87932559      20.53566545        4        1
Se      40.87321339     -49.87932559      17.17711265        5        1
W       37.09974630     -49.95267294      18.85638905        3        1
Se      38.04039008     -48.28320468      20.53566545        4        1
Se      38.04039008     -48.28320468      17.17711265        5        1
W       34.26692299     -48.35655203      18.85638905        3        1
Se      35.20756676     -46.68708377      20.53566545        4        1
Se      35.20756676     -46.68708377      17.17711265        5        1
W       31.43409967     -46.76043112      18.85638905        3        1
Se      32.37474345     -45.09096286      20.53566545        4        1
Se      32.37474345     -45.09096286      17.17711265        5        1
W       28.60127636     -45.16431021      18.85638905        3        1
Se      29.54192013     -43.49484195      20.53566545        4        1
Se      29.54192013     -43.49484195      17.17711265        5        1
W       25.76845304     -43.56818930      18.85638905        3        1
Se      26.70909682     -41.89872104      20.53566545        4        1
Se      26.70909682     -41.89872104      17.17711265        5        1
W      177.81939121     -41.97206839      18.85638905        3        1
Se      23.87627350     -40.30260013      20.53566545        4        1
Se      23.87627350     -40.30260013      17.17711265        5        1
W      174.98656789     -40.37594748      18.85638905        3        1
Se     175.92721167     -38.70647922      20.53566545        4        1
Se     175.92721167     -38.70647922      17.17711265        5        1
W      115.42901748      -0.35469354      18.85638905        3        1
Se     193.81154199    -132.81849735      20.53566545        4        1
Se     193.81154199    -132.81849735      17.17711265        5        1
W      190.03807490    -132.89184470      18.85638905        3        1
Se     190.97871868    -131.22237644      20.53566545        4        1
Se     190.97871868    -131.22237644      17.17711265        5        1
W      187.20525159    -131.29572379      18.85638905        3        1
Se     188.14589536    -129.62625553      20.53566545        4        1
Se     188.14589536    -129.62625553      17.17711265        5        1
W      184.37242827    -129.69960288      18.85638905        3        1
Se     185.31307205    -128.03013462      20.53566545        4        1
Se     185.31307205    -128.03013462      17.17711265        5        1
W      181.53960496    -128.10348197      18.85638905        3        1
Se     182.48024873    -126.43401371      20.53566545        4        1
Se     182.48024873    -126.43401371      17.17711265        5        1
W      178.70678164    -126.50736106      18.85638905        3        1
Se     179.64742542    -124.83789280      20.53566545        4        1
Se     179.64742542    -124.83789280      17.17711265        5        1
W      175.87395833    -124.91124015      18.85638905        3        1
Se     176.81460210    -123.24177189      20.53566545        4        1
Se     176.81460210    -123.24177189      17.17711265        5        1
W      173.04113501    -123.31511924      18.85638905        3        1
Se     173.98177879    -121.64565098      20.53566545        4        1
Se     173.98177879    -121.64565098      17.17711265        5        1
W      170.20831170    -121.71899833      18.85638905        3        1
Se     171.14895547    -120.04953007      20.53566545        4        1
Se     171.14895547    -120.04953007      17.17711265        5        1
W      167.37548839    -120.12287742      18.85638905        3        1
Se     168.31613216    -118.45340916      20.53566545        4        1
Se     168.31613216    -118.45340916      17.17711265        5        1
W      164.54266507    -118.52675650      18.85638905        3        1
Se     165.48330884    -116.85728825      20.53566545        4        1
Se     165.48330884    -116.85728825      17.17711265        5        1
W      161.70984176    -116.93063559      18.85638905        3        1
Se     162.65048553    -115.26116734      20.53566545        4        1
Se     162.65048553    -115.26116734      17.17711265        5        1
W      158.87701844    -115.33451468      18.85638905        3        1
Se     159.81766222    -113.66504643      20.53566545        4        1
Se     159.81766222    -113.66504643      17.17711265        5        1
W      156.04419513    -113.73839377      18.85638905        3        1
Se     156.98483890    -112.06892552      20.53566545        4        1
Se     156.98483890    -112.06892552      17.17711265        5        1
W      153.21137181    -112.14227286      18.85638905        3        1
Se     154.15201559    -110.47280460      20.53566545        4        1
Se     154.15201559    -110.47280460      17.17711265        5        1
W      150.37854850    -110.54615195      18.85638905        3        1
Se     151.31919227    -108.87668369      20.53566545        4        1
Se     151.31919227    -108.87668369      17.17711265        5        1
W      147.54572518    -108.95003104      18.85638905        3        1
Se     148.48636896    -107.28056278      20.53566545        4        1
Se     148.48636896    -107.28056278      17.17711265        5        1
W      144.71290187    -107.35391013      18.85638905        3        1
Se     145.65354564    -105.68444187      20.53566545        4        1
Se     145.65354564    -105.68444187      17.17711265        5        1
W      141.88007855    -105.75778922      18.85638905        3        1
Se     142.82072233    -104.08832096      20.53566545        4        1
Se     142.82072233    -104.08832096      17.17711265        5        1
W      139.04725524    -104.16166831      18.85638905        3        1
Se     139.98789901    -102.49220005      20.53566545        4        1
Se     139.98789901    -102.49220005      17.17711265        5        1
W      136.21443192    -102.56554740      18.85638905        3        1
Se     137.15507570    -100.89607914      20.53566545        4        1
Se     137.15507570    -100.89607914      17.17711265        5        1
W      133.38160861    -100.96942649      18.85638905        3        1
Se     134.32225238     -99.29995823      20.53566545        4        1
Se     134.32225238     -99.29995823      17.17711265        5        1
W      130.54878529     -99.37330558      18.85638905        3        1
Se     131.48942907     -97.70383732      20.53566545        4        1
Se     131.48942907     -97.70383732      17.17711265        5        1
W      127.71596198     -97.77718467      18.85638905        3        1
Se     128.65660575     -96.10771641      20.53566545        4        1
Se     128.65660575     -96.10771641      17.17711265        5        1
W      124.88313866     -96.18106376      18.85638905        3        1
Se     125.82378244     -94.51159550      20.53566545        4        1
Se     125.82378244     -94.51159550      17.17711265        5        1
W      122.05031535     -94.58494285      18.85638905        3        1
Se     122.99095912     -92.91547459      20.53566545        4        1
Se     122.99095912     -92.91547459      17.17711265        5        1
W      119.21749203     -92.98882194      18.85638905        3        1
Se     120.15813581     -91.31935368      20.53566545        4        1
Se     120.15813581     -91.31935368      17.17711265        5        1
W      116.38466872     -91.39270103      18.85638905        3        1
Se     117.32531249     -89.72323277      20.53566545        4        1
Se     117.32531249     -89.72323277      17.17711265        5        1
W      113.55184540     -89.79658012      18.85638905        3        1
Se     114.49248918     -88.12711186      20.53566545        4        1
Se     114.49248918     -88.12711186      17.17711265        5        1
W      110.71902209     -88.20045920      18.85638905        3        1
Se     111.65966586     -86.53099095      20.53566545        4        1
Se     111.65966586     -86.53099095      17.17711265        5        1
W      107.88619877     -86.60433829      18.85638905        3        1
Se     108.82684255     -84.93487004      20.53566545        4        1
Se     108.82684255     -84.93487004      17.17711265        5        1
W      105.05337546     -85.00821738      18.85638905        3        1
Se     105.99401923     -83.33874913      20.53566545        4        1
Se     105.99401923     -83.33874913      17.17711265        5        1
W      102.22055214     -83.41209647      18.85638905        3        1
Se     103.16119592     -81.74262822      20.53566545        4        1
Se     103.16119592     -81.74262822      17.17711265        5        1
W       99.38772883     -81.81597556      18.85638905        3        1
Se     100.32837260     -80.14650730      20.53566545        4        1
Se     100.32837260     -80.14650730      17.17711265        5        1
W       96.55490551     -80.21985465      18.85638905        3        1
Se      97.49554929     -78.55038639      20.53566545        4        1
Se      97.49554929     -78.55038639      17.17711265        5        1
W       93.72208220     -78.62373374      18.85638905        3        1
Se      94.66272597     -76.95426548      20.53566545        4        1
Se      94.66272597     -76.95426548      17.17711265        5        1
W       90.88925888     -77.02761283      18.85638905        3        1
Se      91.82990266     -75.35814457      20.53566545        4        1
Se      91.82990266     -75.35814457      17.17711265        5        1
W       88.05643557     -75.43149192      18.85638905        3        1
Se      88.99707934     -73.76202366      20.53566545        4        1
Se      88.99707934     -73.76202366      17.17711265        5        1
W       85.22361225     -73.83537101      18.85638905        3        1
Se      86.16425603     -72.16590275      20.53566545        4        1
Se      86.16425603     -72.16590275      17.17711265        5        1
W       82.39078894     -72.23925010      18.85638905        3        1
Se      83.33143271     -70.56978184      20.53566545        4        1
Se      83.33143271     -70.56978184      17.17711265        5        1
W       79.55796563     -70.64312919      18.85638905        3        1
Se      80.49860940     -68.97366093      20.53566545        4        1
Se      80.49860940     -68.97366093      17.17711265        5        1
W       76.72514231     -69.04700828      18.85638905        3        1
Se      77.66578608     -67.37754002      20.53566545        4        1
Se      77.66578608     -67.37754002      17.17711265        5        1
W       73.89231900     -67.45088737      18.85638905        3        1
Se      74.83296277     -65.78141911      20.53566545        4        1
Se      74.83296277     -65.78141911      17.17711265        5        1
W       71.05949568     -65.85476646      18.85638905        3        1
Se      72.00013946     -64.18529820      20.53566545        4        1
Se      72.00013946     -64.18529820      17.17711265        5        1
W       68.22667237     -64.25864555      18.85638905        3        1
Se      69.16731614     -62.58917729      20.53566545        4        1
Se      69.16731614     -62.58917729      17.17711265        5        1
W       65.39384905     -62.66252464      18.85638905        3        1
Se      66.33449283     -60.99305638      20.53566545        4        1
Se      66.33449283     -60.99305638      17.17711265        5        1
W       62.56102574     -61.06640373      18.85638905        3        1
Se      63.50166951     -59.39693547      20.53566545        4        1
Se      63.50166951     -59.39693547      17.17711265        5        1
W       59.72820242     -59.47028281      18.85638905        3        1
Se      60.66884620     -57.80081456      20.53566545        4        1
Se      60.66884620     -57.80081456      17.17711265        5        1
W       56.89537911     -57.87416190      18.85638905        3        1
Se      57.83602288     -56.20469365      20.53566545        4        1
Se      57.83602288     -56.20469365      17.17711265        5        1
W       54.06255579     -56.27804099      18.85638905        3        1
Se      55.00319957     -54.60857274      20.53566545        4        1
Se      55.00319957     -54.60857274      17.17711265        5        1
W       51.22973248     -54.68192008      18.85638905        3        1
Se      52.17037625     -53.01245183      20.53566545        4        1
Se      52.17037625     -53.01245183      17.17711265        5        1
W       48.39690916     -53.08579917      18.85638905        3        1
Se      49.33755294     -51.41633092      20.53566545        4        1
Se      49.33755294     -51.41633092      17.17711265        5        1
W       45.56408585     -51.48967826      18.85638905        3        1
Se      46.50472962     -49.82021000      20.53566545        4        1
Se      46.50472962     -49.82021000      17.17711265        5        1
W       42.73126253     -49.89355735      18.85638905        3        1
Se      43.67190631     -48.22408909      20.53566545        4        1
Se      43.67190631     -48.22408909      17.17711265        5        1
W       39.89843922     -48.29743644      18.85638905        3        1
Se      40.83908299     -46.62796818      20.53566545        4        1
Se      40.83908299     -46.62796818      17.17711265        5        1
W       37.06561590     -46.70131553      18.85638905        3        1
Se      38.00625968     -45.03184727      20.53566545        4        1
Se      38.00625968     -45.03184727      17.17711265        5        1
W       34.23279259     -45.10519462      18.85638905        3        1
Se      35.17343636     -43.43572636      20.53566545        4        1
Se      35.17343636     -43.43572636      17.17711265        5        1
W       31.39996927     -43.50907371      18.85638905        3        1
Se      32.34061305     -41.83960545      20.53566545        4        1
Se      32.34061305     -41.83960545      17.17711265        5        1
W       28.56714596     -41.91295280      18.85638905        3        1
Se      29.50778973     -40.24348454      20.53566545        4        1
Se      29.50778973     -40.24348454      17.17711265        5        1
W       25.73432264     -40.31683189      18.85638905        3        1
Se      26.67496642     -38.64736363      20.53566545        4        1
Se      26.67496642     -38.64736363      17.17711265        5        1
W       22.90149933     -38.72071098      18.85638905        3        1
Se      23.84214310     -37.05124272      20.53566545        4        1
Se      23.84214310     -37.05124272      17.17711265        5        1
W      174.95243749     -37.12459007      18.85638905        3        1
Se      21.00931979     -35.45512181      20.53566545        4        1
Se      21.00931979     -35.45512181      17.17711265        5        1
W      172.11961418     -35.52846916      18.85638905        3        1
Se     173.06025795     -33.85900090      20.53566545        4        1
Se     173.06025795     -33.85900090      17.17711265        5        1
W      121.06053371      -0.29557795      18.85638905        3        1
Se     199.44305822    -132.75938176      20.53566545        4        1
Se     199.44305822    -132.75938176      17.17711265        5        1
W      195.66959113    -132.83272911      18.85638905        3        1
Se     196.61023491    -131.16326085      20.53566545        4        1
Se     196.61023491    -131.16326085      17.17711265        5        1
W      192.83676782    -131.23660820      18.85638905        3        1
Se     193.77741159    -129.56713994      20.53566545        4        1
Se     193.77741159    -129.56713994      17.17711265        5        1
W      190.00394450    -129.64048729      18.85638905        3        1
Se     190.94458828    -127.97101903      20.53566545        4        1
Se     190.94458828    -127.97101903      17.17711265        5        1
W      187.17112119    -128.04436638      18.85638905        3        1
Se     188.11176496    -126.37489812      20.53566545        4        1
Se     188.11176496    -126.37489812      17.17711265        5        1
W      184.33829787    -126.44824547      18.85638905        3        1
Se     185.27894165    -124.77877721      20.53566545        4        1
Se     185.27894165    -124.77877721      17.17711265        5        1
W      181.50547456    -124.85212456      18.85638905        3        1
Se     182.44611833    -123.18265630      20.53566545        4        1
Se     182.44611833    -123.18265630      17.17711265        5        1
W      178.67265124    -123.25600365      18.85638905        3        1
Se     179.61329502    -121.58653539      20.53566545        4        1
Se     179.61329502    -121.58653539      17.17711265        5        1
W      175.83982793    -121.65988274      18.85638905        3        1
Se     176.78047170    -119.99041448      20.53566545        4        1
Se     176.78047170    -119.99041448      17.17711265        5        1
W      173.00700461    -120.06376183      18.85638905        3        1
Se     173.94764839    -118.39429357      20.53566545        4        1
Se     173.94764839    -118.39429357      17.17711265        5        1
W      170.17418130    -118.46764092      18.85638905        3        1
Se     171.11482507    -116.79817266      20.53566545        4        1
Se     171.11482507    -116.79817266      17.17711265        5        1
W      167.34135798    -116.87152000      18.85638905        3        1
Se     168.28200176    -115.20205175      20.53566545        4        1
Se     168.28200176    -115.20205175      17.17711265        5        1
W      164.50853467    -115.27539909      18.85638905        3        1
Se     165.44917844    -113.60593084      20.53566545        4        1
Se     165.44917844    -113.60593084      17.17711265        5        1
W      161.67571135    -113.67927818      18.85638905        3        1
Se     162.61635513    -112.00980993      20.53566545        4        1
Se     162.61635513    -112.00980993      17.17711265        5        1
W      158.84288804    -112.08315727      18.85638905        3        1
Se     159.78353181    -110.41368902      20.53566545        4        1
Se     159.78353181    -110.41368902      17.17711265        5        1
W      156.01006472    -110.48703636      18.85638905        3        1
Se     156.95070850    -108.81756811      20.53566545        4        1
Se     156.95070850    -108.81756811      17.17711265        5        1
W      153.17724141    -108.89091545      18.85638905        3        1
Se     154.11788518    -107.22144719      20.53566545        4        1
Se     154.11788518    -107.22144719      17.17711265        5        1
W      150.34441809    -107.29479454      18.85638905        3        1
Se     151.28506187    -105.62532628      20.53566545        4        1
Se     151.28506187    -105.62532628      17.17711265        5        1
W      147.51159478    -105.69867363      18.85638905        3        1
Se     148.45223855    -104.02920537      20.53566545        4        1
Se     148.45223855    -104.02920537      17.17711265        5        1
W      144.67877147    -104.10255272      18.85638905        3        1
Se     145.61941524    -102.43308446      20.53566545        4        1
Se     145.61941524    -102.43308446      17.17711265        5        1
W      141.84594815    -102.50643181      18.85638905        3        1
Se     142.78659192    -100.83696355      20.53566545        4        1
Se     142.78659192    -100.83696355      17.17711265        5        1
W      139.01312484    -100.91031090      18.85638905        3        1
Se     139.95376861     -99.24084264      20.53566545        4        1
Se     139.95376861     -99.24084264      17.17711265        5        1
W      136.18030152     -99.31418999      18.85638905        3        1
Se     137.12094530     -97.64472173      20.53566545        4        1
Se     137.12094530     -97.64472173      17.17711265        5        1
W      133.34747821     -97.71806908      18.85638905        3        1
Se     134.28812198     -96.04860082      20.53566545        4        1
Se     134.28812198     -96.04860082      17.17711265        5        1
W      130.51465489     -96.12194817      18.85638905        3        1
Se     131.45529867     -94.45247991      20.53566545        4        1
Se     131.45529867     -94.45247991      17.17711265        5        1
W      127.68183158     -94.52582726      18.85638905        3        1
Se     128.62247535     -92.85635900      20.53566545        4        1
Se     128.62247535     -92.85635900      17.17711265        5        1
W      124.84900826     -92.92970635      18.85638905        3        1
Se     125.78965204     -91.26023809      20.53566545        4        1
Se     125.78965204     -91.26023809      17.17711265        5        1
W      122.01618495     -91.33358544      18.85638905        3        1
Se     122.95682872     -89.66411718      20.53566545        4        1
Se     122.95682872     -89.66411718      17.17711265        5        1
W      119.18336163     -89.73746453      18.85638905        3        1
Se     120.12400541     -88.06799627      20.53566545        4        1
Se     120.12400541     -88.06799627      17.17711265        5        1
W      116.35053832     -88.14134362      18.85638905        3        1
Se     117.29118209     -86.47187536      20.53566545        4        1
Se     117.29118209     -86.47187536      17.17711265        5        1
W      113.51771500     -86.54522270      18.85638905        3        1
Se     114.45835878     -84.87575445      20.53566545        4        1
Se     114.45835878     -84.87575445      17.17711265        5        1
W      110.68489169     -84.94910179      18.85638905        3        1
Se     111.62553546     -83.27963354      20.53566545        4        1
Se     111.62553546     -83.27963354      17.17711265        5        1
W      107.85206837     -83.35298088      18.85638905        3        1
Se     108.79271215     -81.68351263      20.53566545        4        1
Se     108.79271215     -81.68351263      17.17711265        5        1
W      105.01924506     -81.75685997      18.85638905        3        1
Se     105.95988883     -80.08739172      20.53566545        4        1
Se     105.95988883     -80.08739172      17.17711265        5        1
W      102.18642174     -80.16073906      18.85638905        3        1
Se     103.12706552     -78.49127080      20.53566545        4        1
Se     103.12706552     -78.49127080      17.17711265        5        1
W       99.35359843     -78.56461815      18.85638905        3        1
Se     100.29424220     -76.89514989      20.53566545        4        1
Se     100.29424220     -76.89514989      17.17711265        5        1
W       96.52077511     -76.96849724      18.85638905        3        1
Se      97.46141889     -75.29902898      20.53566545        4        1
Se      97.46141889     -75.29902898      17.17711265        5        1
W       93.68795180     -75.37237633      18.85638905        3        1
Se      94.62859557     -73.70290807      20.53566545        4        1
Se      94.62859557     -73.70290807      17.17711265        5        1
W       90.85512848     -73.77625542      18.85638905        3        1
Se      91.79577226     -72.10678716      20.53566545        4        1
Se      91.79577226     -72.10678716      17.17711265        5        1
W       88.02230517     -72.18013451      18.85638905        3        1
Se      88.96294894     -70.51066625      20.53566545        4        1
Se      88.96294894     -70.51066625      17.17711265        5        1
W       85.18948185     -70.58401360      18.85638905        3        1
Se      86.13012563     -68.91454534      20.53566545        4        1
Se      86.13012563     -68.91454534      17.17711265        5        1
W       82.35665854     -68.98789269      18.85638905        3        1
Se      83.29730231     -67.31842443      20.53566545        4        1
Se      83.29730231     -67.31842443      17.17711265        5        1
W       79.52383522     -67.39177178      18.85638905        3        1
Se      80.46447900     -65.72230352      20.53566545        4        1
Se      80.46447900     -65.72230352      17.17711265        5        1
W       76.69101191     -65.79565087      18.85638905        3        1
Se      77.63165568     -64.12618261      20.53566545        4        1
Se      77.63165568     -64.12618261      17.17711265        5        1
W       73.85818859     -64.19952996      18.85638905        3        1
Se      74.79883237     -62.53006170      20.53566545        4        1
Se      74.79883237     -62.53006170      17.17711265        5        1
W       71.02536528     -62.60340905      18.85638905        3        1
Se      71.96600905     -60.93394079      20.53566545        4        1
Se      71.96600905     -60.93394079      17.17711265        5        1
W       68.19254196     -61.00728814      18.85638905        3        1
Se      69.13318574     -59.33781988      20.53566545        4        1
Se      69.13318574     -59.33781988      17.17711265        5        1
W       65.35971865     -59.41116723      18.85638905        3        1
Se      66.30036242     -57.74169897      20.53566545        4        1
Se      66.30036242     -57.74169897      17.17711265        5        1
W       62.52689533     -57.81504632      18.85638905        3        1
Se      63.46753911     -56.14557806      20.53566545        4        1
Se      63.46753911     -56.14557806      17.17711265        5        1
W       59.69407202     -56.21892540      18.85638905        3        1
Se      60.63471579     -54.54945715      20.53566545        4        1
Se      60.63471579     -54.54945715      17.17711265        5        1
W       56.86124871     -54.62280449      18.85638905        3        1
Se      57.80189248     -52.95333624      20.53566545        4        1
Se      57.80189248     -52.95333624      17.17711265        5        1
W       54.02842539     -53.02668358      18.85638905        3        1
Se      54.96906916     -51.35721533      20.53566545        4        1
Se      54.96906916     -51.35721533      17.17711265        5        1
W       51.19560208     -51.43056267      18.85638905        3        1
Se      52.13624585     -49.76109442      20.53566545        4        1
Se      52.13624585     -49.76109442      17.17711265        5        1
W       48.36277876     -49.83444176      18.85638905        3        1
Se      49.30342254     -48.16497350      20.53566545        4        1
Se      49.30342254     -48.16497350      17.17711265        5        1
W       45.52995545     -48.23832085      18.85638905        3        1
Se      46.47059922     -46.56885259      20.53566545        4        1
Se      46.47059922     -46.56885259      17.17711265        5        1
W       42.69713213     -46.64219994      18.85638905        3        1
Se      43.63777591     -44.97273168      20.53566545        4        1
Se      43.63777591     -44.97273168      17.17711265        5        1
W       39.86430882     -45.04607903      18.85638905        3        1
Se      40.80495259     -43.37661077      20.53566545        4        1
Se      40.80495259     -43.37661077      17.17711265        5        1
W       37.03148550     -43.44995812      18.85638905        3        1
Se      37.97212928     -41.78048986      20.53566545        4        1
Se      37.97212928     -41.78048986      17.17711265        5        1
W       34.19866219     -41.85383721      18.85638905        3        1
Se      35.13930596     -40.18436895      20.53566545        4        1
Se      35.13930596     -40.18436895      17.17711265        5        1
W       31.36583887     -40.25771630      18.85638905        3        1
Se      32.30648265     -38.58824804      20.53566545        4        1
Se      32.30648265     -38.58824804      17.17711265        5        1
W       28.53301556     -38.66159539      18.85638905        3        1
Se      29.47365933     -36.99212713      20.53566545        4        1
Se      29.47365933     -36.99212713      17.17711265        5        1
W       25.70019224     -37.06547448      18.85638905        3        1
Se      26.64083602     -35.39600622      20.53566545        4        1
Se      26.64083602     -35.39600622      17.17711265        5        1
W       22.86736893     -35.46935357      18.85638905        3        1
Se      23.80801270     -33.79988531      20.53566545        4        1
Se      23.80801270     -33.79988531      17.17711265        5        1
W       20.03454561     -33.87323266      18.85638905        3        1
Se      20.97518939     -32.20376440      20.53566545        4        1
Se      20.97518939     -32.20376440      17.17711265        5        1
W      172.08548378     -32.27711175      18.85638905        3        1
Se      18.14236607     -30.60764349      20.53566545        4        1
Se      18.14236607     -30.60764349      17.17711265        5        1
W      169.25266046     -30.68099084      18.85638905        3        1
Se     170.19330424     -29.01152258      20.53566545        4        1
Se     170.19330424     -29.01152258      17.17711265        5        1
W      126.69204994      -0.23646236      18.85638905        3        1
Se     205.07457445    -132.70026617      20.53566545        4        1
Se     205.07457445    -132.70026617      17.17711265        5        1
W      201.30110736    -132.77361352      18.85638905        3        1
Se     202.24175114    -131.10414526      20.53566545        4        1
Se     202.24175114    -131.10414526      17.17711265        5        1
W      198.46828405    -131.17749261      18.85638905        3        1
Se     199.40892782    -129.50802435      20.53566545        4        1
Se     199.40892782    -129.50802435      17.17711265        5        1
W      195.63546073    -129.58137170      18.85638905        3        1
Se     196.57610451    -127.91190344      20.53566545        4        1
Se     196.57610451    -127.91190344      17.17711265        5        1
W      192.80263742    -127.98525079      18.85638905        3        1
Se     193.74328119    -126.31578253      20.53566545        4        1
Se     193.74328119    -126.31578253      17.17711265        5        1
W      189.96981410    -126.38912988      18.85638905        3        1
Se     190.91045788    -124.71966162      20.53566545        4        1
Se     190.91045788    -124.71966162      17.17711265        5        1
W      187.13699079    -124.79300897      18.85638905        3        1
Se     188.07763456    -123.12354071      20.53566545        4        1
Se     188.07763456    -123.12354071      17.17711265        5        1
W      184.30416747    -123.19688806      18.85638905        3        1
Se     185.24481125    -121.52741980      20.53566545        4        1
Se     185.24481125    -121.52741980      17.17711265        5        1
W      181.47134416    -121.60076715      18.85638905        3        1
Se     182.41198793    -119.93129889      20.53566545        4        1
Se     182.41198793    -119.93129889      17.17711265        5        1
W      178.63852084    -120.00464624      18.85638905        3        1
Se     179.57916462    -118.33517798      20.53566545        4        1
Se     179.57916462    -118.33517798      17.17711265        5        1
W      175.80569753    -118.40852533      18.85638905        3        1
Se     176.74634130    -116.73905707      20.53566545        4        1
Se     176.74634130    -116.73905707      17.17711265        5        1
W      172.97287421    -116.81240442      18.85638905        3        1
Se     173.91351799    -115.14293616      20.53566545        4        1
Se     173.91351799    -115.14293616      17.17711265        5        1
W      170.14005090    -115.21628351      18.85638905        3        1
Se     171.08069467    -113.54681525      20.53566545        4        1
Se     171.08069467    -113.54681525      17.17711265        5        1
W      167.30722758    -113.62016259      18.85638905        3        1
Se     168.24787136    -111.95069434      20.53566545        4        1
Se     168.24787136    -111.95069434      17.17711265        5        1
W      164.47440427    -112.02404168      18.85638905        3        1
Se     165.41504804    -110.35457343      20.53566545        4        1
Se     165.41504804    -110.35457343      17.17711265        5        1
W      161.64158095    -110.42792077      18.85638905        3        1
Se     162.58222473    -108.75845252      20.53566545        4        1
Se     162.58222473    -108.75845252      17.17711265        5        1
W      158.80875764    -108.83179986      18.85638905        3        1
Se     159.74940141    -107.16233161      20.53566545        4        1
Se     159.74940141    -107.16233161      17.17711265        5        1
W      155.97593432    -107.23567895      18.85638905        3        1
Se     156.91657810    -105.56621069      20.53566545        4        1
Se     156.91657810    -105.56621069      17.17711265        5        1
W      153.14311101    -105.63955804      18.85638905        3        1
Se     154.08375478    -103.97008978      20.53566545        4        1
Se     154.08375478    -103.97008978      17.17711265        5        1
W      150.31028769    -104.04343713      18.85638905        3        1
Se     151.25093147    -102.37396887      20.53566545        4        1
Se     151.25093147    -102.37396887      17.17711265        5        1
W      147.47746438    -102.44731622      18.85638905        3        1
Se     148.41810815    -100.77784796      20.53566545        4        1
Se     148.41810815    -100.77784796      17.17711265        5        1
W      144.64464106    -100.85119531      18.85638905        3        1
Se     145.58528484     -99.18172705      20.53566545        4        1
Se     145.58528484     -99.18172705      17.17711265        5        1
W      141.81181775     -99.25507440      18.85638905        3        1
Se     142.75246152     -97.58560614      20.53566545        4        1
Se     142.75246152     -97.58560614      17.17711265        5        1
W      138.97899443     -97.65895349      18.85638905        3        1
Se     139.91963821     -95.98948523      20.53566545        4        1
Se     139.91963821     -95.98948523      17.17711265        5        1
W      136.14617112     -96.06283258      18.85638905        3        1
Se     137.08681489     -94.39336432      20.53566545        4        1
Se     137.08681489     -94.39336432      17.17711265        5        1
W      133.31334780     -94.46671167      18.85638905        3        1
Se     134.25399158     -92.79724341      20.53566545        4        1
Se     134.25399158     -92.79724341      17.17711265        5        1
W      130.48052449     -92.87059076      18.85638905        3        1
Se     131.42116826     -91.20112250      20.53566545        4        1
Se     131.42116826     -91.20112250      17.17711265        5        1
W      127.64770117     -91.27446985      18.85638905        3        1
Se     128.58834495     -89.60500159      20.53566545        4        1
Se     128.58834495     -89.60500159      17.17711265        5        1
W      124.81487786     -89.67834894      18.85638905        3        1
Se     125.75552163     -88.00888068      20.53566545        4        1
Se     125.75552163     -88.00888068      17.17711265        5        1
W      121.98205455     -88.08222803      18.85638905        3        1
Se     122.92269832     -86.41275977      20.53566545        4        1
Se     122.92269832     -86.41275977      17.17711265        5        1
W      119.14923123     -86.48610712      18.85638905        3        1
Se     120.08987500     -84.81663886      20.53566545        4        1
Se     120.08987500     -84.81663886      17.17711265        5        1
W      116.31640792     -84.88998620      18.85638905        3        1
Se     117.25705169     -83.22051795      20.53566545        4        1
Se     117.25705169     -83.22051795      17.17711265        5        1
W      113.48358460     -83.29386529      18.85638905        3        1
Se     114.42422837     -81.62439704      20.53566545        4        1
Se     114.42422837     -81.62439704      17.17711265        5        1
W      110.65076129     -81.69774438      18.85638905        3        1
Se     111.59140506     -80.02827613      20.53566545        4        1
Se     111.59140506     -80.02827613      17.17711265        5        1
W      107.81793797     -80.10162347      18.85638905        3        1
Se     108.75858175     -78.43215522      20.53566545        4        1
Se     108.75858175     -78.43215522      17.17711265        5        1
W      104.98511466     -78.50550256      18.85638905        3        1
Se     105.92575843     -76.83603431      20.53566545        4        1
Se     105.92575843     -76.83603431      17.17711265        5        1
W      102.15229134     -76.90938165      18.85638905        3        1
Se     103.09293512     -75.23991339      20.53566545        4        1
Se     103.09293512     -75.23991339      17.17711265        5        1
W       99.31946803     -75.31326074      18.85638905        3        1
Se     100.26011180     -73.64379248      20.53566545        4        1
Se     100.26011180     -73.64379248      17.17711265        5        1
W       96.48664471     -73.71713983      18.85638905        3        1
Se      97.42728849     -72.04767157      20.53566545        4        1
Se      97.42728849     -72.04767157      17.17711265        5        1
W       93.65382140     -72.12101892      18.85638905        3        1
Se      94.59446517     -70.45155066      20.53566545        4        1
Se      94.59446517     -70.45155066      17.17711265        5        1
W       90.82099808     -70.52489801      18.85638905        3        1
Se      91.76164186     -68.85542975      20.53566545        4        1
Se      91.76164186     -68.85542975      17.17711265        5        1
W       87.98817477     -68.92877710      18.85638905        3        1
Se      88.92881854     -67.25930884      20.53566545        4        1
Se      88.92881854     -67.25930884      17.17711265        5        1
W       85.15535145     -67.33265619      18.85638905        3        1
Se      86.09599523     -65.66318793      20.53566545        4        1
Se      86.09599523     -65.66318793      17.17711265        5        1
W       82.32252814     -65.73653528      18.85638905        3        1
Se      83.26317191     -64.06706702      20.53566545        4        1
Se      83.26317191     -64.06706702      17.17711265        5        1
W       79.48970482     -64.14041437      18.85638905        3        1
Se      80.43034860     -62.47094611      20.53566545        4        1
Se      80.43034860     -62.47094611      17.17711265        5        1
W       76.65688151     -62.54429346      18.85638905        3        1
Se      77.59752528     -60.87482520      20.53566545        4        1
Se      77.59752528     -60.87482520      17.17711265        5        1
W       73.82405819     -60.94817255      18.85638905        3        1
Se      74.76470197     -59.27870429      20.53566545        4        1
Se      74.76470197     -59.27870429      17.17711265        5        1
W       70.99123488     -59.35205164      18.85638905        3        1
Se      71.93187865     -57.68258338      20.53566545        4        1
Se      71.93187865     -57.68258338      17.17711265        5        1
W       68.15841156     -57.75593073      18.85638905        3        1
Se      69.09905534     -56.08646247      20.53566545        4        1
Se      69.09905534     -56.08646247      17.17711265        5        1
W       65.32558825     -56.15980982      18.85638905        3        1
Se      66.26623202     -54.49034156      20.53566545        4        1
Se      66.26623202     -54.49034156      17.17711265        5        1
W       62.49276493     -54.56368890      18.85638905        3        1
Se      63.43340871     -52.89422065      20.53566545        4        1
Se      63.43340871     -52.89422065      17.17711265        5        1
W       59.65994162     -52.96756799      18.85638905        3        1
Se      60.60058539     -51.29809974      20.53566545        4        1
Se      60.60058539     -51.29809974      17.17711265        5        1
W       56.82711830     -51.37144708      18.85638905        3        1
Se      57.76776208     -49.70197883      20.53566545        4        1
Se      57.76776208     -49.70197883      17.17711265        5        1
W       53.99429499     -49.77532617      18.85638905        3        1
Se      54.93493876     -48.10585792      20.53566545        4        1
Se      54.93493876     -48.10585792      17.17711265        5        1
W       51.16147167     -48.17920526      18.85638905        3        1
Se      52.10211545     -46.50973700      20.53566545        4        1
Se      52.10211545     -46.50973700      17.17711265        5        1
W       48.32864836     -46.58308435      18.85638905        3        1
Se      49.26929213     -44.91361609      20.53566545        4        1
Se      49.26929213     -44.91361609      17.17711265        5        1
W       45.49582504     -44.98696344      18.85638905        3        1
Se      46.43646882     -43.31749518      20.53566545        4        1
Se      46.43646882     -43.31749518      17.17711265        5        1
W       42.66300173     -43.39084253      18.85638905        3        1
Se      43.60364550     -41.72137427      20.53566545        4        1
Se      43.60364550     -41.72137427      17.17711265        5        1
W       39.83017841     -41.79472162      18.85638905        3        1
Se      40.77082219     -40.12525336      20.53566545        4        1
Se      40.77082219     -40.12525336      17.17711265        5        1
W       36.99735510     -40.19860071      18.85638905        3        1
Se      37.93799887     -38.52913245      20.53566545        4        1
Se      37.93799887     -38.52913245      17.17711265        5        1
W       34.16453179     -38.60247980      18.85638905        3        1
Se      35.10517556     -36.93301154      20.53566545        4        1
Se      35.10517556     -36.93301154      17.17711265        5        1
W       31.33170847     -37.00635889      18.85638905        3        1
Se      32.27235224     -35.33689063      20.53566545        4        1
Se      32.27235224     -35.33689063      17.17711265        5        1
W       28.49888516     -35.41023798      18.85638905        3        1
Se      29.43952893     -33.74076972      20.53566545        4        1
Se      29.43952893     -33.74076972      17.17711265        5        1
W       25.66606184     -33.81411707      18.85638905        3        1
Se      26.60670561     -32.14464881      20.53566545        4        1
Se      26.60670561     -32.14464881      17.17711265        5        1
W       22.83323853     -32.21799616      18.85638905        3        1
Se      23.77388230     -30.54852790      20.53566545        4        1
Se      23.77388230     -30.54852790      17.17711265        5        1
W       20.00041521     -30.62187525      18.85638905        3        1
Se      20.94105899     -28.95240699      20.53566545        4        1
Se      20.94105899     -28.95240699      17.17711265        5        1
W       17.16759190     -29.02575434      18.85638905        3        1
Se      18.10823567     -27.35628608      20.53566545        4        1
Se      18.10823567     -27.35628608      17.17711265        5        1
W      169.21853006     -27.42963343      18.85638905        3        1
Se      15.27541236     -25.76016517      20.53566545        4        1
Se      15.27541236     -25.76016517      17.17711265        5        1
W      166.38570675     -25.83351251      18.85638905        3        1
Se     167.32635052     -24.16404426      20.53566545        4        1
Se     167.32635052     -24.16404426      17.17711265        5        1
W      132.32356616      -0.17734677      18.85638905        3        1
Se     210.70609068    -132.64115058      20.53566545        4        1
Se     210.70609068    -132.64115058      17.17711265        5        1
W      206.93262359    -132.71449793      18.85638905        3        1
Se     207.87326736    -131.04502967      20.53566545        4        1
Se     207.87326736    -131.04502967      17.17711265        5        1
W      204.09980027    -131.11837702      18.85638905        3        1
Se     205.04044405    -129.44890876      20.53566545        4        1
Se     205.04044405    -129.44890876      17.17711265        5        1
W      201.26697696    -129.52225611      18.85638905        3        1
Se     202.20762073    -127.85278785      20.53566545        4        1
Se     202.20762073    -127.85278785      17.17711265        5        1
W      198.43415364    -127.92613520      18.85638905        3        1
Se     199.37479742    -126.25666694      20.53566545        4        1
Se     199.37479742    -126.25666694      17.17711265        5        1
W      195.60133033    -126.33001429      18.85638905        3        1
Se     196.54197410    -124.66054603      20.53566545        4        1
Se     196.54197410    -124.66054603      17.17711265        5        1
W      192.76850701    -124.73389338      18.85638905        3        1
Se     193.70915079    -123.06442512      20.53566545        4        1
Se     193.70915079    -123.06442512      17.17711265        5        1
W      189.93568370    -123.13777247      18.85638905        3        1
Se     190.87632747    -121.46830421      20.53566545        4        1
Se     190.87632747    -121.46830421      17.17711265        5        1
W      187.10286038    -121.54165156      18.85638905        3        1
Se     188.04350416    -119.87218330      20.53566545        4        1
Se     188.04350416    -119.87218330      17.17711265        5        1
W      184.27003707    -119.94553065      18.85638905        3        1
Se     185.21068084    -118.27606239      20.53566545        4        1
Se     185.21068084    -118.27606239      17.17711265        5        1
W      181.43721376    -118.34940974      18.85638905        3        1
Se     182.37785753    -116.67994148      20.53566545        4        1
Se     182.37785753    -116.67994148      17.17711265        5        1
W      178.60439044    -116.75328883      18.85638905        3        1
Se     179.54503421    -115.08382057      20.53566545        4        1
Se     179.54503421    -115.08382057      17.17711265        5        1
W      175.77156713    -115.15716792      18.85638905        3        1
Se     176.71221090    -113.48769966      20.53566545        4        1
Se     176.71221090    -113.48769966      17.17711265        5        1
W      172.93874381    -113.56104701      18.85638905        3        1
Se     173.87938759    -111.89157875      20.53566545        4        1
Se     173.87938759    -111.89157875      17.17711265        5        1
W      170.10592050    -111.96492609      18.85638905        3        1
Se     171.04656427    -110.29545784      20.53566545        4        1
Se     171.04656427    -110.29545784      17.17711265        5        1
W      167.27309718    -110.36880518      18.85638905        3        1
Se     168.21374096    -108.69933693      20.53566545        4        1
Se     168.21374096    -108.69933693      17.17711265        5        1
W      164.44027387    -108.77268427      18.85638905        3        1
Se     165.38091764    -107.10321602      20.53566545        4        1
Se     165.38091764    -107.10321602      17.17711265        5        1
W      161.60745055    -107.17656336      18.85638905        3        1
Se     162.54809433    -105.50709511      20.53566545        4        1
Se     162.54809433    -105.50709511      17.17711265        5        1
W      158.77462724    -105.58044245      18.85638905        3        1
Se     159.71527101    -103.91097419      20.53566545        4        1
Se     159.71527101    -103.91097419      17.17711265        5        1
W      155.94180392    -103.98432154      18.85638905        3        1
Se     156.88244770    -102.31485328      20.53566545        4        1
Se     156.88244770    -102.31485328      17.17711265        5        1
W      153.10898061    -102.38820063      18.85638905        3        1
Se     154.04962438    -100.71873237      20.53566545        4        1
Se     154.04962438    -100.71873237      17.17711265        5        1
W      150.27615729    -100.79207972      18.85638905        3        1
Se     151.21680107     -99.12261146      20.53566545        4        1
Se     151.21680107     -99.12261146      17.17711265        5        1
W      147.44333398     -99.19595881      18.85638905        3        1
Se     148.38397775     -97.52649055      20.53566545        4        1
Se     148.38397775     -97.52649055      17.17711265        5        1
W      144.61051066     -97.59983790      18.85638905        3        1
Se     145.55115444     -95.93036964      20.53566545        4        1
Se     145.55115444     -95.93036964      17.17711265        5        1
W      141.77768735     -96.00371699      18.85638905        3        1
Se     142.71833112     -94.33424873      20.53566545        4        1
Se     142.71833112     -94.33424873      17.17711265        5        1
W      138.94486403     -94.40759608      18.85638905        3        1
Se     139.88550781     -92.73812782      20.53566545        4        1
Se     139.88550781     -92.73812782      17.17711265        5        1
W      136.11204072     -92.81147517      18.85638905        3        1
Se     137.05268449     -91.14200691      20.53566545        4        1
Se     137.05268449     -91.14200691      17.17711265        5        1
W      133.27921740     -91.21535426      18.85638905        3        1
Se     134.21986118     -89.54588600      20.53566545        4        1
Se     134.21986118     -89.54588600      17.17711265        5        1
W      130.44639409     -89.61923335      18.85638905        3        1
Se     131.38703786     -87.94976509      20.53566545        4        1
Se     131.38703786     -87.94976509      17.17711265        5        1
W      127.61357077     -88.02311244      18.85638905        3        1
Se     128.55421455     -86.35364418      20.53566545        4        1
Se     128.55421455     -86.35364418      17.17711265        5        1
W      124.78074746     -86.42699153      18.85638905        3        1
Se     125.72139123     -84.75752327      20.53566545        4        1
Se     125.72139123     -84.75752327      17.17711265        5        1
W      121.94792414     -84.83087062      18.85638905        3        1
Se     122.88856792     -83.16140236      20.53566545        4        1
Se     122.88856792     -83.16140236      17.17711265        5        1
W      119.11510083     -83.23474971      18.85638905        3        1
Se     120.05574460     -81.56528145      20.53566545        4        1
Se     120.05574460     -81.56528145      17.17711265        5        1
W      116.28227751     -81.63862879      18.85638905        3        1
Se     117.22292129     -79.96916054      20.53566545        4        1
Se     117.22292129     -79.96916054      17.17711265        5        1
W      113.44945420     -80.04250788      18.85638905        3        1
Se     114.39009797     -78.37303963      20.53566545        4        1
Se     114.39009797     -78.37303963      17.17711265        5        1
W      110.61663088     -78.44638697      18.85638905        3        1
Se     111.55727466     -76.77691872      20.53566545        4        1
Se     111.55727466     -76.77691872      17.17711265        5        1
W      107.78380757     -76.85026606      18.85638905        3        1
Se     108.72445134     -75.18079781      20.53566545        4        1
Se     108.72445134     -75.18079781      17.17711265        5        1
W      104.95098425     -75.25414515      18.85638905        3        1
Se     105.89162803     -73.58467689      20.53566545        4        1
Se     105.89162803     -73.58467689      17.17711265        5        1
W      102.11816094     -73.65802424      18.85638905        3        1
Se     103.05880471     -71.98855598      20.53566545        4        1
Se     103.05880471     -71.98855598      17.17711265        5        1
W       99.28533762     -72.06190333      18.85638905        3        1
Se     100.22598140     -70.39243507      20.53566545        4        1
Se     100.22598140     -70.39243507      17.17711265        5        1
W       96.45251431     -70.46578242      18.85638905        3        1
Se      97.39315808     -68.79631416      20.53566545        4        1
Se      97.39315808     -68.79631416      17.17711265        5        1
W       93.61969100     -68.86966151      18.85638905        3        1
Se      94.56033477     -67.20019325      20.53566545        4        1
Se      94.56033477     -67.20019325      17.17711265        5        1
W       90.78686768     -67.27354060      18.85638905        3        1
Se      91.72751145     -65.60407234      20.53566545        4        1
Se      91.72751145     -65.60407234      17.17711265        5        1
W       87.95404437     -65.67741969      18.85638905        3        1
Se      88.89468814     -64.00795143      20.53566545        4        1
Se      88.89468814     -64.00795143      17.17711265        5        1
W       85.12122105     -64.08129878      18.85638905        3        1
Se      86.06186483     -62.41183052      20.53566545        4        1
Se      86.06186483     -62.41183052      17.17711265        5        1
W       82.28839774     -62.48517787      18.85638905        3        1
Se      83.22904151     -60.81570961      20.53566545        4        1
Se      83.22904151     -60.81570961      17.17711265        5        1
W       79.45557442     -60.88905696      18.85638905        3        1
Se      80.39621820     -59.21958870      20.53566545        4        1
Se      80.39621820     -59.21958870      17.17711265        5        1
W       76.62275111     -59.29293605      18.85638905        3        1
Se      77.56339488     -57.62346779      20.53566545        4        1
Se      77.56339488     -57.62346779      17.17711265        5        1
W       73.78992779     -57.69681514      18.85638905        3        1
Se      74.73057157     -56.02734688      20.53566545        4        1
Se      74.73057157     -56.02734688      17.17711265        5        1
W       70.95710448     -56.10069423      18.85638905        3        1
Se      71.89774825     -54.43122597      20.53566545        4        1
Se      71.89774825     -54.43122597      17.17711265        5        1
W       68.12428116     -54.50457332      18.85638905        3        1
Se      69.06492494     -52.83510506      20.53566545        4        1
Se      69.06492494     -52.83510506      17.17711265        5        1
W       65.29145785     -52.90845240      18.85638905        3        1
Se      66.23210162     -51.23898415      20.53566545        4        1
Se      66.23210162     -51.23898415      17.17711265        5        1
W       62.45863453     -51.31233149      18.85638905        3        1
Se      63.39927831     -49.64286324      20.53566545        4        1
Se      63.39927831     -49.64286324      17.17711265        5        1
W       59.62581122     -49.71621058      18.85638905        3        1
Se      60.56645499     -48.04674233      20.53566545        4        1
Se      60.56645499     -48.04674233      17.17711265        5        1
W       56.79298790     -48.12008967      18.85638905        3        1
Se      57.73363168     -46.45062142      20.53566545        4        1
Se      57.73363168     -46.45062142      17.17711265        5        1
W       53.96016459     -46.52396876      18.85638905        3        1
Se      54.90080836     -44.85450051      20.53566545        4        1
Se      54.90080836     -44.85450051      17.17711265        5        1
W       51.12734127     -44.92784785      18.85638905        3        1
Se      52.06798505     -43.25837959      20.53566545        4        1
Se      52.06798505     -43.25837959      17.17711265        5        1
W       48.29451796     -43.33172694      18.85638905        3        1
Se      49.23516173     -41.66225868      20.53566545        4        1
Se      49.23516173     -41.66225868      17.17711265        5        1
W       45.46169464     -41.73560603      18.85638905        3        1
Se      46.40233842     -40.06613777      20.53566545        4        1
Se      46.40233842     -40.06613777      17.17711265        5        1
W       42.62887133     -40.13948512      18.85638905        3        1
Se      43.56951510     -38.47001686      20.53566545        4        1
Se      43.56951510     -38.47001686      17.17711265        5        1
W       39.79604801     -38.54336421      18.85638905        3        1
Se      40.73669179     -36.87389595      20.53566545        4        1
Se      40.73669179     -36.87389595      17.17711265        5        1
W       36.96322470     -36.94724330      18.85638905        3        1
Se      37.90386847     -35.27777504      20.53566545        4        1
Se      37.90386847     -35.27777504      17.17711265        5        1
W       34.13040138     -35.35112239      18.85638905        3        1
Se      35.07104516     -33.68165413      20.53566545        4        1
Se      35.07104516     -33.68165413      17.17711265        5        1
W       31.29757807     -33.75500148      18.85638905        3        1
Se      32.23822184     -32.08553322      20.53566545        4        1
Se      32.23822184     -32.08553322      17.17711265        5        1
W       28.46475475     -32.15888057      18.85638905        3        1
Se      29.40539853     -30.48941231      20.53566545        4        1
Se      29.40539853     -30.48941231      17.17711265        5        1
W       25.63193144     -30.56275966      18.85638905        3        1
Se      26.57257521     -28.89329140      20.53566545        4        1
Se      26.57257521     -28.89329140      17.17711265        5        1
W       22.79910812     -28.96663875      18.85638905        3        1
Se      23.73975190     -27.29717049      20.53566545        4        1
Se      23.73975190     -27.29717049      17.17711265        5        1
W       19.96628481     -27.37051784      18.85638905        3        1
Se      20.90692858     -25.70104958      20.53566545        4        1
Se      20.90692858     -25.70104958      17.17711265        5        1
W       17.13346149     -25.77439693      18.85638905        3        1
Se      18.07410527     -24.10492867      20.53566545        4        1
Se      18.07410527     -24.10492867      17.17711265        5        1
W       14.30063818     -24.17827602      18.85638905        3        1
Se      15.24128195     -22.50880776      20.53566545        4        1
Se      15.24128195     -22.50880776      17.17711265        5        1
W      166.35157634     -22.58215510      18.85638905        3        1
Se      12.40845864     -20.91268685      20.53566545        4        1
Se      12.40845864     -20.91268685      17.17711265        5        1
W      163.51875303     -20.98603419      18.85638905        3        1
Se     164.45939680     -19.31656594      20.53566545        4        1
Se     164.45939680     -19.31656594      17.17711265        5        1
W      137.95508239      -0.11823118      18.85638905        3        1
Se     216.33760691    -132.58203500      20.53566545        4        1
Se     216.33760691    -132.58203500      17.17711265        5        1
W      212.56413982    -132.65538234      18.85638905        3        1
Se     213.50478359    -130.98591408      20.53566545        4        1
Se     213.50478359    -130.98591408      17.17711265        5        1
W      209.73131650    -131.05926143      18.85638905        3        1
Se     210.67196028    -129.38979317      20.53566545        4        1
Se     210.67196028    -129.38979317      17.17711265        5        1
W      206.89849319    -129.46314052      18.85638905        3        1
Se     207.83913696    -127.79367226      20.53566545        4        1
Se     207.83913696    -127.79367226      17.17711265        5        1
W      204.06566987    -127.86701961      18.85638905        3        1
Se     205.00631365    -126.19755135      20.53566545        4        1
Se     205.00631365    -126.19755135      17.17711265        5        1
W      201.23284656    -126.27089870      18.85638905        3        1
Se     202.17349033    -124.60143044      20.53566545        4        1
Se     202.17349033    -124.60143044      17.17711265        5        1
W      198.40002324    -124.67477779      18.85638905        3        1
Se     199.34066702    -123.00530953      20.53566545        4        1
Se     199.34066702    -123.00530953      17.17711265        5        1
W      195.56719993    -123.07865688      18.85638905        3        1
Se     196.50784370    -121.40918862      20.53566545        4        1
Se     196.50784370    -121.40918862      17.17711265        5        1
W      192.73437661    -121.48253597      18.85638905        3        1
Se     193.67502039    -119.81306771      20.53566545        4        1
Se     193.67502039    -119.81306771      17.17711265        5        1
W      189.90155330    -119.88641506      18.85638905        3        1
Se     190.84219707    -118.21694680      20.53566545        4        1
Se     190.84219707    -118.21694680      17.17711265        5        1
W      187.06872998    -118.29029415      18.85638905        3        1
Se     188.00937376    -116.62082589      20.53566545        4        1
Se     188.00937376    -116.62082589      17.17711265        5        1
W      184.23590667    -116.69417324      18.85638905        3        1
Se     185.17655044    -115.02470498      20.53566545        4        1
Se     185.17655044    -115.02470498      17.17711265        5        1
W      181.40308335    -115.09805233      18.85638905        3        1
Se     182.34372713    -113.42858407      20.53566545        4        1
Se     182.34372713    -113.42858407      17.17711265        5        1
W      178.57026004    -113.50193142      18.85638905        3        1
Se     179.51090381    -111.83246316      20.53566545        4        1
Se     179.51090381    -111.83246316      17.17711265        5        1
W      175.73743672    -111.90581051      18.85638905        3        1
Se     176.67808050    -110.23634225      20.53566545        4        1
Se     176.67808050    -110.23634225      17.17711265        5        1
W      172.90461341    -110.30968959      18.85638905        3        1
Se     173.84525718    -108.64022134      20.53566545        4        1
Se     173.84525718    -108.64022134      17.17711265        5        1
W      170.07179009    -108.71356868      18.85638905        3        1
Se     171.01243387    -107.04410043      20.53566545        4        1
Se     171.01243387    -107.04410043      17.17711265        5        1
W      167.23896678    -107.11744777      18.85638905        3        1
Se     168.17961055    -105.44797952      20.53566545        4        1
Se     168.17961055    -105.44797952      17.17711265        5        1
W      164.40614346    -105.52132686      18.85638905        3        1
Se     165.34678724    -103.85185861      20.53566545        4        1
Se     165.34678724    -103.85185861      17.17711265        5        1
W      161.57332015    -103.92520595      18.85638905        3        1
Se     162.51396392    -102.25573770      20.53566545        4        1
Se     162.51396392    -102.25573770      17.17711265        5        1
W      158.74049684    -102.32908504      18.85638905        3        1
Se     159.68114061    -100.65961678      20.53566545        4        1
Se     159.68114061    -100.65961678      17.17711265        5        1
W      155.90767352    -100.73296413      18.85638905        3        1
Se     156.84831729     -99.06349587      20.53566545        4        1
Se     156.84831729     -99.06349587      17.17711265        5        1
W      153.07485021     -99.13684322      18.85638905        3        1
Se     154.01549398     -97.46737496      20.53566545        4        1
Se     154.01549398     -97.46737496      17.17711265        5        1
W      150.24202689     -97.54072231      18.85638905        3        1
Se     151.18267067     -95.87125405      20.53566545        4        1
Se     151.18267067     -95.87125405      17.17711265        5        1
W      147.40920358     -95.94460140      18.85638905        3        1
Se     148.34984735     -94.27513314      20.53566545        4        1
Se     148.34984735     -94.27513314      17.17711265        5        1
W      144.57638026     -94.34848049      18.85638905        3        1
Se     145.51702404     -92.67901223      20.53566545        4        1
Se     145.51702404     -92.67901223      17.17711265        5        1
W      141.74355695     -92.75235958      18.85638905        3        1
Se     142.68420072     -91.08289132      20.53566545        4        1
Se     142.68420072     -91.08289132      17.17711265        5        1
W      138.91073363     -91.15623867      18.85638905        3        1
Se     139.85137741     -89.48677041      20.53566545        4        1
Se     139.85137741     -89.48677041      17.17711265        5        1
W      136.07791032     -89.56011776      18.85638905        3        1
Se     137.01855409     -87.89064950      20.53566545        4        1
Se     137.01855409     -87.89064950      17.17711265        5        1
W      133.24508700     -87.96399685      18.85638905        3        1
Se     134.18573078     -86.29452859      20.53566545        4        1
Se     134.18573078     -86.29452859      17.17711265        5        1
W      130.41226369     -86.36787594      18.85638905        3        1
Se     131.35290746     -84.69840768      20.53566545        4        1
Se     131.35290746     -84.69840768      17.17711265        5        1
W      127.57944037     -84.77175503      18.85638905        3        1
Se     128.52008415     -83.10228677      20.53566545        4        1
Se     128.52008415     -83.10228677      17.17711265        5        1
W      124.74661706     -83.17563412      18.85638905        3        1
Se     125.68726083     -81.50616586      20.53566545        4        1
Se     125.68726083     -81.50616586      17.17711265        5        1
W      121.91379374     -81.57951321      18.85638905        3        1
Se     122.85443752     -79.91004495      20.53566545        4        1
Se     122.85443752     -79.91004495      17.17711265        5        1
W      119.08097043     -79.98339229      18.85638905        3        1
Se     120.02161420     -78.31392404      20.53566545        4        1
Se     120.02161420     -78.31392404      17.17711265        5        1
W      116.24814711     -78.38727138      18.85638905        3        1
Se     117.18879089     -76.71780313      20.53566545        4        1
Se     117.18879089     -76.71780313      17.17711265        5        1
W      113.41532380     -76.79115047      18.85638905        3        1
Se     114.35596757     -75.12168222      20.53566545        4        1
Se     114.35596757     -75.12168222      17.17711265        5        1
W      110.58250048     -75.19502956      18.85638905        3        1
Se     111.52314426     -73.52556131      20.53566545        4        1
Se     111.52314426     -73.52556131      17.17711265        5        1
W      107.74967717     -73.59890865      18.85638905        3        1
Se     108.69032094     -71.92944039      20.53566545        4        1
Se     108.69032094     -71.92944039      17.17711265        5        1
W      104.91685385     -72.00278774      18.85638905        3        1
Se     105.85749763     -70.33331948      20.53566545        4        1
Se     105.85749763     -70.33331948      17.17711265        5        1
W      102.08403054     -70.40666683      18.85638905        3        1
Se     103.02467431     -68.73719857      20.53566545        4        1
Se     103.02467431     -68.73719857      17.17711265        5        1
W       99.25120722     -68.81054592      18.85638905        3        1
Se     100.19185100     -67.14107766      20.53566545        4        1
Se     100.19185100     -67.14107766      17.17711265        5        1
W       96.41838391     -67.21442501      18.85638905        3        1
Se      97.35902768     -65.54495675      20.53566545        4        1
Se      97.35902768     -65.54495675      17.17711265        5        1
W       93.58556059     -65.61830410      18.85638905        3        1
Se      94.52620437     -63.94883584      20.53566545        4        1
Se      94.52620437     -63.94883584      17.17711265        5        1
W       90.75273728     -64.02218319      18.85638905        3        1
Se      91.69338105     -62.35271493      20.53566545        4        1
Se      91.69338105     -62.35271493      17.17711265        5        1
W       87.91991396     -62.42606228      18.85638905        3        1
Se      88.86055774     -60.75659402      20.53566545        4        1
Se      88.86055774     -60.75659402      17.17711265        5        1
W       85.08709065     -60.82994137      18.85638905        3        1
Se      86.02773442     -59.16047311      20.53566545        4        1
Se      86.02773442     -59.16047311      17.17711265        5        1
W       82.25426733     -59.23382046      18.85638905        3        1
Se      83.19491111     -57.56435220      20.53566545        4        1
Se      83.19491111     -57.56435220      17.17711265        5        1
W       79.42144402     -57.63769955      18.85638905        3        1
Se      80.36208779     -55.96823129      20.53566545        4        1
Se      80.36208779     -55.96823129      17.17711265        5        1
W       76.58862070     -56.04157864      18.85638905        3        1
Se      77.52926448     -54.37211038      20.53566545        4        1
Se      77.52926448     -54.37211038      17.17711265        5        1
W       73.75579739     -54.44545773      18.85638905        3        1
Se      74.69644116     -52.77598947      20.53566545        4        1
Se      74.69644116     -52.77598947      17.17711265        5        1
W       70.92297408     -52.84933682      18.85638905        3        1
Se      71.86361785     -51.17986856      20.53566545        4        1
Se      71.86361785     -51.17986856      17.17711265        5        1
W       68.09015076     -51.25321591      18.85638905        3        1
Se      69.03079453     -49.58374765      20.53566545        4        1
Se      69.03079453     -49.58374765      17.17711265        5        1
W       65.25732745     -49.65709499      18.85638905        3        1
Se      66.19797122     -47.98762674      20.53566545        4        1
Se      66.19797122     -47.98762674      17.17711265        5        1
W       62.42450413     -48.06097408      18.85638905        3        1
Se      63.36514791     -46.39150583      20.53566545        4        1
Se      63.36514791     -46.39150583      17.17711265        5        1
W       59.59168082     -46.46485317      18.85638905        3        1
Se      60.53232459     -44.79538492      20.53566545        4        1
Se      60.53232459     -44.79538492      17.17711265        5        1
W       56.75885750     -44.86873226      18.85638905        3        1
Se      57.69950128     -43.19926401      20.53566545        4        1
Se      57.69950128     -43.19926401      17.17711265        5        1
W       53.92603419     -43.27261135      18.85638905        3        1
Se      54.86667796     -41.60314309      20.53566545        4        1
Se      54.86667796     -41.60314309      17.17711265        5        1
W       51.09321087     -41.67649044      18.85638905        3        1
Se      52.03385465     -40.00702218      20.53566545        4        1
Se      52.03385465     -40.00702218      17.17711265        5        1
W       48.26038756     -40.08036953      18.85638905        3        1
Se      49.20103133     -38.41090127      20.53566545        4        1
Se      49.20103133     -38.41090127      17.17711265        5        1
W       45.42756424     -38.48424862      18.85638905        3        1
Se      46.36820802     -36.81478036      20.53566545        4        1
Se      46.36820802     -36.81478036      17.17711265        5        1
W       42.59474093     -36.88812771      18.85638905        3        1
Se      43.53538470     -35.21865945      20.53566545        4        1
Se      43.53538470     -35.21865945      17.17711265        5        1
W       39.76191761     -35.29200680      18.85638905        3        1
Se      40.70256139     -33.62253854      20.53566545        4        1
Se      40.70256139     -33.62253854      17.17711265        5        1
W       36.92909430     -33.69588589      18.85638905        3        1
Se      37.86973807     -32.02641763      20.53566545        4        1
Se      37.86973807     -32.02641763      17.17711265        5        1
W       34.09627098     -32.09976498      18.85638905        3        1
Se      35.03691476     -30.43029672      20.53566545        4        1
Se      35.03691476     -30.43029672      17.17711265        5        1
W       31.26344767     -30.50364407      18.85638905        3        1
Se      32.20409144     -28.83417581      20.53566545        4        1
Se      32.20409144     -28.83417581      17.17711265        5        1
W       28.43062435     -28.90752316      18.85638905        3        1
Se      29.37126813     -27.23805490      20.53566545        4        1
Se      29.37126813     -27.23805490      17.17711265        5        1
W       25.59780104     -27.31140225      18.85638905        3        1
Se      26.53844481     -25.64193399      20.53566545        4        1
Se      26.53844481     -25.64193399      17.17711265        5        1
W       22.76497772     -25.71528134      18.85638905        3        1
Se      23.70562150     -24.04581308      20.53566545        4        1
Se      23.70562150     -24.04581308      17.17711265        5        1
W       19.93215441     -24.11916043      18.85638905        3        1
Se      20.87279818     -22.44969217      20.53566545        4        1
Se      20.87279818     -22.44969217      17.17711265        5        1
W       17.09933109     -22.52303952      18.85638905        3        1
Se      18.03997487     -20.85357126      20.53566545        4        1
Se      18.03997487     -20.85357126      17.17711265        5        1
W       14.26650778     -20.92691860      18.85638905        3        1
Se      15.20715155     -19.25745035      20.53566545        4        1
Se      15.20715155     -19.25745035      17.17711265        5        1
W       11.43368446     -19.33079769      18.85638905        3        1
Se      12.37432824     -17.66132944      20.53566545        4        1
Se      12.37432824     -17.66132944      17.17711265        5        1
W      163.48462263     -17.73467678      18.85638905        3        1
Se       9.54150492     -16.06520853      20.53566545        4        1
Se       9.54150492     -16.06520853      17.17711265        5        1
W      160.65179931     -16.13855587      18.85638905        3        1
Se     161.59244309     -14.46908762      20.53566545        4        1
Se     161.59244309     -14.46908762      17.17711265        5        1
W      143.58659862      -0.05911559      18.85638905        3        1
Se     221.96912313    -132.52291941      20.53566545        4        1
Se     221.96912313    -132.52291941      17.17711265        5        1
W      218.19565605    -132.59626675      18.85638905        3        1
Se     219.13629982    -130.92679850      20.53566545        4        1
Se     219.13629982    -130.92679850      17.17711265        5        1
W      215.36283273    -131.00014584      18.85638905        3        1
Se     216.30347651    -129.33067758      20.53566545        4        1
Se     216.30347651    -129.33067758      17.17711265        5        1
W      212.53000942    -129.40402493      18.85638905        3        1
Se     213.47065319    -127.73455667      20.53566545        4        1
Se     213.47065319    -127.73455667      17.17711265        5        1
W      209.69718610    -127.80790402      18.85638905        3        1
Se     210.63782988    -126.13843576      20.53566545        4        1
Se     210.63782988    -126.13843576      17.17711265        5        1
W      206.86436279    -126.21178311      18.85638905        3        1
Se     207.80500656    -124.54231485      20.53566545        4        1
Se     207.80500656    -124.54231485      17.17711265        5        1
W      204.03153947    -124.61566220      18.85638905        3        1
Se     204.97218325    -122.94619394      20.53566545        4        1
Se     204.97218325    -122.94619394      17.17711265        5        1
W      201.19871616    -123.01954129      18.85638905        3        1
Se     202.13935993    -121.35007303      20.53566545        4        1
Se     202.13935993    -121.35007303      17.17711265        5        1
W      198.36589284    -121.42342038      18.85638905        3        1
Se     199.30653662    -119.75395212      20.53566545        4        1
Se     199.30653662    -119.75395212      17.17711265        5        1
W      195.53306953    -119.82729947      18.85638905        3        1
Se     196.47371330    -118.15783121      20.53566545        4        1
Se     196.47371330    -118.15783121      17.17711265        5        1
W      192.70024621    -118.23117856      18.85638905        3        1
Se     193.64088999    -116.56171030      20.53566545        4        1
Se     193.64088999    -116.56171030      17.17711265        5        1
W      189.86742290    -116.63505765      18.85638905        3        1
Se     190.80806667    -114.96558939      20.53566545        4        1
Se     190.80806667    -114.96558939      17.17711265        5        1
W      187.03459958    -115.03893674      18.85638905        3        1
Se     187.97524336    -113.36946848      20.53566545        4        1
Se     187.97524336    -113.36946848      17.17711265        5        1
W      184.20177627    -113.44281583      18.85638905        3        1
Se     185.14242004    -111.77334757      20.53566545        4        1
Se     185.14242004    -111.77334757      17.17711265        5        1
W      181.36895295    -111.84669492      18.85638905        3        1
Se     182.30959673    -110.17722666      20.53566545        4        1
Se     182.30959673    -110.17722666      17.17711265        5        1
W      178.53612964    -110.25057401      18.85638905        3        1
Se     179.47677341    -108.58110575      20.53566545        4        1
Se     179.47677341    -108.58110575      17.17711265        5        1
W      175.70330632    -108.65445310      18.85638905        3        1
Se     176.64395010    -106.98498484      20.53566545        4        1
Se     176.64395010    -106.98498484      17.17711265        5        1
W      172.87048301    -107.05833218      18.85638905        3        1
Se     173.81112678    -105.38886393      20.53566545        4        1
Se     173.81112678    -105.38886393      17.17711265        5        1
W      170.03765969    -105.46221127      18.85638905        3        1
Se     170.97830347    -103.79274302      20.53566545        4        1
Se     170.97830347    -103.79274302      17.17711265        5        1
W      167.20483638    -103.86609036      18.85638905        3        1
Se     168.14548015    -102.19662211      20.53566545        4        1
Se     168.14548015    -102.19662211      17.17711265        5        1
W      164.37201306    -102.26996945      18.85638905        3        1
Se     165.31265684    -100.60050120      20.53566545        4        1
Se     165.31265684    -100.60050120      17.17711265        5        1
W      161.53918975    -100.67384854      18.85638905        3        1
Se     162.47983352     -99.00438028      20.53566545        4        1
Se     162.47983352     -99.00438028      17.17711265        5        1
W      158.70636643     -99.07772763      18.85638905        3        1
Se     159.64701021     -97.40825937      20.53566545        4        1
Se     159.64701021     -97.40825937      17.17711265        5        1
W      155.87354312     -97.48160672      18.85638905        3        1
Se     156.81418689     -95.81213846      20.53566545        4        1
Se     156.81418689     -95.81213846      17.17711265        5        1
W      153.04071980     -95.88548581      18.85638905        3        1
Se     153.98136358     -94.21601755      20.53566545        4        1
Se     153.98136358     -94.21601755      17.17711265        5        1
W      150.20789649     -94.28936490      18.85638905        3        1
Se     151.14854026     -92.61989664      20.53566545        4        1
Se     151.14854026     -92.61989664      17.17711265        5        1
W      147.37507317     -92.69324399      18.85638905        3        1
Se     148.31571695     -91.02377573      20.53566545        4        1
Se     148.31571695     -91.02377573      17.17711265        5        1
W      144.54224986     -91.09712308      18.85638905        3        1
Se     145.48289363     -89.42765482      20.53566545        4        1
Se     145.48289363     -89.42765482      17.17711265        5        1
W      141.70942654     -89.50100217      18.85638905        3        1
Se     142.65007032     -87.83153391      20.53566545        4        1
Se     142.65007032     -87.83153391      17.17711265        5        1
W      138.87660323     -87.90488126      18.85638905        3        1
Se     139.81724700     -86.23541300      20.53566545        4        1
Se     139.81724700     -86.23541300      17.17711265        5        1
W      136.04377992     -86.30876035      18.85638905        3        1
Se     136.98442369     -84.63929209      20.53566545        4        1
Se     136.98442369     -84.63929209      17.17711265        5        1
W      133.21095660     -84.71263944      18.85638905        3        1
Se     134.15160037     -83.04317118      20.53566545        4        1
Se     134.15160037     -83.04317118      17.17711265        5        1
W      130.37813329     -83.11651853      18.85638905        3        1
Se     131.31877706     -81.44705027      20.53566545        4        1
Se     131.31877706     -81.44705027      17.17711265        5        1
W      127.54530997     -81.52039762      18.85638905        3        1
Se     128.48595375     -79.85092936      20.53566545        4        1
Se     128.48595375     -79.85092936      17.17711265        5        1
W      124.71248666     -79.92427671      18.85638905        3        1
Se     125.65313043     -78.25480845      20.53566545        4        1
Se     125.65313043     -78.25480845      17.17711265        5        1
W      121.87966334     -78.32815579      18.85638905        3        1
Se     122.82030712     -76.65868754      20.53566545        4        1
Se     122.82030712     -76.65868754      17.17711265        5        1
W      119.04684003     -76.73203488      18.85638905        3        1
Se     119.98748380     -75.06256663      20.53566545        4        1
Se     119.98748380     -75.06256663      17.17711265        5        1
W      116.21401671     -75.13591397      18.85638905        3        1
Se     117.15466049     -73.46644572      20.53566545        4        1
Se     117.15466049     -73.46644572      17.17711265        5        1
W      113.38119340     -73.53979306      18.85638905        3        1
Se     114.32183717     -71.87032481      20.53566545        4        1
Se     114.32183717     -71.87032481      17.17711265        5        1
W      110.54837008     -71.94367215      18.85638905        3        1
Se     111.48901386     -70.27420390      20.53566545        4        1
Se     111.48901386     -70.27420390      17.17711265        5        1
W      107.71554677     -70.34755124      18.85638905        3        1
Se     108.65619054     -68.67808298      20.53566545        4        1
Se     108.65619054     -68.67808298      17.17711265        5        1
W      104.88272345     -68.75143033      18.85638905        3        1
Se     105.82336723     -67.08196207      20.53566545        4        1
Se     105.82336723     -67.08196207      17.17711265        5        1
W      102.04990014     -67.15530942      18.85638905        3        1
Se     102.99054391     -65.48584116      20.53566545        4        1
Se     102.99054391     -65.48584116      17.17711265        5        1
W       99.21707682     -65.55918851      18.85638905        3        1
Se     100.15772060     -63.88972025      20.53566545        4        1
Se     100.15772060     -63.88972025      17.17711265        5        1
W       96.38425351     -63.96306760      18.85638905        3        1
Se      97.32489728     -62.29359934      20.53566545        4        1
Se      97.32489728     -62.29359934      17.17711265        5        1
W       93.55143019     -62.36694669      18.85638905        3        1
Se      94.49207397     -60.69747843      20.53566545        4        1
Se      94.49207397     -60.69747843      17.17711265        5        1
W       90.71860688     -60.77082578      18.85638905        3        1
Se      91.65925065     -59.10135752      20.53566545        4        1
Se      91.65925065     -59.10135752      17.17711265        5        1
W       87.88578356     -59.17470487      18.85638905        3        1
Se      88.82642734     -57.50523661      20.53566545        4        1
Se      88.82642734     -57.50523661      17.17711265        5        1
W       85.05296025     -57.57858396      18.85638905        3        1
Se      85.99360402     -55.90911570      20.53566545        4        1
Se      85.99360402     -55.90911570      17.17711265        5        1
W       82.22013693     -55.98246305      18.85638905        3        1
Se      83.16078071     -54.31299479      20.53566545        4        1
Se      83.16078071     -54.31299479      17.17711265        5        1
W       79.38731362     -54.38634214      18.85638905        3        1
Se      80.32795739     -52.71687388      20.53566545        4        1
Se      80.32795739     -52.71687388      17.17711265        5        1
W       76.55449030     -52.79022123      18.85638905        3        1
Se      77.49513408     -51.12075297      20.53566545        4        1
Se      77.49513408     -51.12075297      17.17711265        5        1
W       73.72166699     -51.19410032      18.85638905        3        1
Se      74.66231076     -49.52463206      20.53566545        4        1
Se      74.66231076     -49.52463206      17.17711265        5        1
W       70.88884367     -49.59797941      18.85638905        3        1
Se      71.82948745     -47.92851115      20.53566545        4        1
Se      71.82948745     -47.92851115      17.17711265        5        1
W       68.05602036     -48.00185849      18.85638905        3        1
Se      68.99666413     -46.33239024      20.53566545        4        1
Se      68.99666413     -46.33239024      17.17711265        5        1
W       65.22319704     -46.40573758      18.85638905        3        1
Se      66.16384082     -44.73626933      20.53566545        4        1
Se      66.16384082     -44.73626933      17.17711265        5        1
W       62.39037373     -44.80961667      18.85638905        3        1
Se      63.33101750     -43.14014842      20.53566545        4        1
Se      63.33101750     -43.14014842      17.17711265        5        1
W       59.55755041     -43.21349576      18.85638905        3        1
Se      60.49819419     -41.54402751      20.53566545        4        1
Se      60.49819419     -41.54402751      17.17711265        5        1
W       56.72472710     -41.61737485      18.85638905        3        1
Se      57.66537087     -39.94790659      20.53566545        4        1
Se      57.66537087     -39.94790659      17.17711265        5        1
W       53.89190378     -40.02125394      18.85638905        3        1
Se      54.83254756     -38.35178568      20.53566545        4        1
Se      54.83254756     -38.35178568      17.17711265        5        1
W       51.05908047     -38.42513303      18.85638905        3        1
Se      51.99972424     -36.75566477      20.53566545        4        1
Se      51.99972424     -36.75566477      17.17711265        5        1
W       48.22625716     -36.82901212      18.85638905        3        1
Se      49.16690093     -35.15954386      20.53566545        4        1
Se      49.16690093     -35.15954386      17.17711265        5        1
W       45.39343384     -35.23289121      18.85638905        3        1
Se      46.33407761     -33.56342295      20.53566545        4        1
Se      46.33407761     -33.56342295      17.17711265        5        1
W       42.56061053     -33.63677030      18.85638905        3        1
Se      43.50125430     -31.96730204      20.53566545        4        1
Se      43.50125430     -31.96730204      17.17711265        5        1
W       39.72778721     -32.04064939      18.85638905        3        1
Se      40.66843098     -30.37118113      20.53566545        4        1
Se      40.66843098     -30.37118113      17.17711265        5        1
W       36.89496390     -30.44452848      18.85638905        3        1
Se      37.83560767     -28.77506022      20.53566545        4        1
Se      37.83560767     -28.77506022      17.17711265        5        1
W       34.06214058     -28.84840757      18.85638905        3        1
Se      35.00278436     -27.17893931      20.53566545        4        1
Se      35.00278436     -27.17893931      17.17711265        5        1
W       31.22931727     -27.25228666      18.85638905        3        1
Se      32.16996104     -25.58281840      20.53566545        4        1
Se      32.16996104     -25.58281840      17.17711265        5        1
W       28.39649395     -25.65616575      18.85638905        3        1
Se      29.33713773     -23.98669749      20.53566545        4        1
Se      29.33713773     -23.98669749      17.17711265        5        1
W       25.56367064     -24.06004484      18.85638905        3        1
Se      26.50431441     -22.39057658      20.53566545        4        1
Se      26.50431441     -22.39057658      17.17711265        5        1
W       22.73084732     -22.46392393      18.85638905        3        1
Se      23.67149110     -20.79445567      20.53566545        4        1
Se      23.67149110     -20.79445567      17.17711265        5        1
W       19.89802401     -20.86780302      18.85638905        3        1
Se      20.83866778     -19.19833476      20.53566545        4        1
Se      20.83866778     -19.19833476      17.17711265        5        1
W       17.06520069     -19.27168211      18.85638905        3        1
Se      18.00584447     -17.60221385      20.53566545        4        1
Se      18.00584447     -17.60221385      17.17711265        5        1
W       14.23237738     -17.67556119      18.85638905        3        1
Se      15.17302115     -16.00609294      20.53566545        4        1
Se      15.17302115     -16.00609294      17.17711265        5        1
W       11.39955406     -16.07944028      18.85638905        3        1
Se      12.34019784     -14.40997203      20.53566545        4        1
Se      12.34019784     -14.40997203      17.17711265        5        1
W        8.56673075     -14.48331937      18.85638905        3        1
Se       9.50737452     -12.81385112      20.53566545        4        1
Se       9.50737452     -12.81385112      17.17711265        5        1
W      160.61766891     -12.88719846      18.85638905        3        1
Se       6.67455121     -11.21773021      20.53566545        4        1
Se       6.67455121     -11.21773021      17.17711265        5        1
W      157.78484560     -11.29107755      18.85638905        3        1
Se     158.72548937      -9.62160929      20.53566545        4        1
Se     158.72548937      -9.62160929      17.17711265        5        1
W      149.21811485      -0.00000000      18.85638905        3        1
Se     227.60063936    -132.46380382      20.53566545        4        1
Se     227.60063936    -132.46380382      17.17711265        5        1
W      223.82717227    -132.53715116      18.85638905        3        1
Se     224.76781605    -130.86768291      20.53566545        4        1
Se     224.76781605    -130.86768291      17.17711265        5        1
W      220.99434896    -130.94103025      18.85638905        3        1
Se     221.93499273    -129.27156200      20.53566545        4        1
Se     221.93499273    -129.27156200      17.17711265        5        1
W      218.16152564    -129.34490934      18.85638905        3        1
Se     219.10216942    -127.67544109      20.53566545        4        1
Se     219.10216942    -127.67544109      17.17711265        5        1
W      215.32870233    -127.74878843      18.85638905        3        1
Se     216.26934610    -126.07932017      20.53566545        4        1
Se     216.26934610    -126.07932017      17.17711265        5        1
W      212.49587901    -126.15266752      18.85638905        3        1
Se     213.43652279    -124.48319926      20.53566545        4        1
Se     213.43652279    -124.48319926      17.17711265        5        1
W      209.66305570    -124.55654661      18.85638905        3        1
Se     210.60369947    -122.88707835      20.53566545        4        1
Se     210.60369947    -122.88707835      17.17711265        5        1
W      206.83023238    -122.96042570      18.85638905        3        1
Se     207.77087616    -121.29095744      20.53566545        4        1
Se     207.77087616    -121.29095744      17.17711265        5        1
W      203.99740907    -121.36430479      18.85638905        3        1
Se     204.93805284    -119.69483653      20.53566545        4        1
Se     204.93805284    -119.69483653      17.17711265        5        1
W      201.16458576    -119.76818388      18.85638905        3        1
Se     202.10522953    -118.09871562      20.53566545        4        1
Se     202.10522953    -118.09871562      17.17711265        5        1
W      198.33176244    -118.17206297      18.85638905        3        1
Se     199.27240621    -116.50259471      20.53566545        4        1
Se     199.27240621    -116.50259471      17.17711265        5        1
W      195.49893913    -116.57594206      18.85638905        3        1
Se     196.43958290    -114.90647380      20.53566545        4        1
Se     196.43958290    -114.90647380      17.17711265        5        1
W      192.66611581    -114.97982115      18.85638905        3        1
Se     193.60675958    -113.31035289      20.53566545        4        1
Se     193.60675958    -113.31035289      17.17711265        5        1
W      189.83329250    -113.38370024      18.85638905        3        1
Se     190.77393627    -111.71423198      20.53566545        4        1
Se     190.77393627    -111.71423198      17.17711265        5        1
W      187.00046918    -111.78757933      18.85638905        3        1
Se     187.94111296    -110.11811107      20.53566545        4        1
Se     187.94111296    -110.11811107      17.17711265        5        1
W      184.16764587    -110.19145842      18.85638905        3        1
Se     185.10828964    -108.52199016      20.53566545        4        1
Se     185.10828964    -108.52199016      17.17711265        5        1
W      181.33482255    -108.59533751      18.85638905        3        1
Se     182.27546633    -106.92586925      20.53566545        4        1
Se     182.27546633    -106.92586925      17.17711265        5        1
W      178.50199924    -106.99921660      18.85638905        3        1
Se     179.44264301    -105.32974834      20.53566545        4        1
Se     179.44264301    -105.32974834      17.17711265        5        1
W      175.66917592    -105.40309568      18.85638905        3        1
Se     176.60981970    -103.73362743      20.53566545        4        1
Se     176.60981970    -103.73362743      17.17711265        5        1
W      172.83635261    -103.80697477      18.85638905        3        1
Se     173.77699638    -102.13750652      20.53566545        4        1
Se     173.77699638    -102.13750652      17.17711265        5        1
W      170.00352929    -102.21085386      18.85638905        3        1
Se     170.94417307    -100.54138561      20.53566545        4        1
Se     170.94417307    -100.54138561      17.17711265        5        1
W      167.17070598    -100.61473295      18.85638905        3        1
Se     168.11134975     -98.94526470      20.53566545        4        1
Se     168.11134975     -98.94526470      17.17711265        5        1
W      164.33788266     -99.01861204      18.85638905        3        1
Se     165.27852644     -97.34914378      20.53566545        4        1
Se     165.27852644     -97.34914378      17.17711265        5        1
W      161.50505935     -97.42249113      18.85638905        3        1
Se     162.44570312     -95.75302287      20.53566545        4        1
Se     162.44570312     -95.75302287      17.17711265        5        1
W      158.67223603     -95.82637022      18.85638905        3        1
Se     159.61287981     -94.15690196      20.53566545        4        1
Se     159.61287981     -94.15690196      17.17711265        5        1
W      155.83941272     -94.23024931      18.85638905        3        1
Se     156.78005649     -92.56078105      20.53566545        4        1
Se     156.78005649     -92.56078105      17.17711265        5        1
W      153.00658940     -92.63412840      18.85638905        3        1
Se     153.94723318     -90.96466014      20.53566545        4        1
Se     153.94723318     -90.96466014      17.17711265        5        1
W      150.17376609     -91.03800749      18.85638905        3        1
Se     151.11440986     -89.36853923      20.53566545        4        1
Se     151.11440986     -89.36853923      17.17711265        5        1
W      147.34094277     -89.44188658      18.85638905        3        1
Se     148.28158655     -87.77241832      20.53566545        4        1
Se     148.28158655     -87.77241832      17.17711265        5        1
W      144.50811946     -87.84576567      18.85638905        3        1
Se     145.44876323     -86.17629741      20.53566545        4        1
Se     145.44876323     -86.17629741      17.17711265        5        1
W      141.67529614     -86.24964476      18.85638905        3        1
Se     142.61593992     -84.58017650      20.53566545        4        1
Se     142.61593992     -84.58017650      17.17711265        5        1
W      138.84247283     -84.65352385      18.85638905        3        1
Se     139.78311660     -82.98405559      20.53566545        4        1
Se     139.78311660     -82.98405559      17.17711265        5        1
W      136.00964951     -83.05740294      18.85638905        3        1
Se     136.95029329     -81.38793468      20.53566545        4        1
Se     136.95029329     -81.38793468      17.17711265        5        1
W      133.17682620     -81.46128203      18.85638905        3        1
Se     134.11746997     -79.79181377      20.53566545        4        1
Se     134.11746997     -79.79181377      17.17711265        5        1
W      130.34400288     -79.86516112      18.85638905        3        1
Se     131.28464666     -78.19569286      20.53566545        4        1
Se     131.28464666     -78.19569286      17.17711265        5        1
W      127.51117957     -78.26904021      18.85638905        3        1
Se     128.45182334     -76.59957195      20.53566545        4        1
Se     128.45182334     -76.59957195      17.17711265        5        1
W      124.67835625     -76.67291930      18.85638905        3        1
Se     125.61900003     -75.00345104      20.53566545        4        1
Se     125.61900003     -75.00345104      17.17711265        5        1
W      121.84553294     -75.07679838      18.85638905        3        1
Se     122.78617671     -73.40733013      20.53566545        4        1
Se     122.78617671     -73.40733013      17.17711265        5        1
W      119.01270962     -73.48067747      18.85638905        3        1
Se     119.95335340     -71.81120922      20.53566545        4        1
Se     119.95335340     -71.81120922      17.17711265        5        1
W      116.17988631     -71.88455656      18.85638905        3        1
Se     117.12053008     -70.21508831      20.53566545        4        1
Se     117.12053008     -70.21508831      17.17711265        5        1
W      113.34706299     -70.28843565      18.85638905        3        1
Se     114.28770677     -68.61896740      20.53566545        4        1
Se     114.28770677     -68.61896740      17.17711265        5        1
W      110.51423968     -68.69231474      18.85638905        3        1
Se     111.45488345     -67.02284648      20.53566545        4        1
Se     111.45488345     -67.02284648      17.17711265        5        1
W      107.68141637     -67.09619383      18.85638905        3        1
Se     108.62206014     -65.42672557      20.53566545        4        1
Se     108.62206014     -65.42672557      17.17711265        5        1
W      104.84859305     -65.50007292      18.85638905        3        1
Se     105.78923682     -63.83060466      20.53566545        4        1
Se     105.78923682     -63.83060466      17.17711265        5        1
W      102.01576974     -63.90395201      18.85638905        3        1
Se     102.95641351     -62.23448375      20.53566545        4        1
Se     102.95641351     -62.23448375      17.17711265        5        1
W       99.18294642     -62.30783110      18.85638905        3        1
Se     100.12359020     -60.63836284      20.53566545        4        1
Se     100.12359020     -60.63836284      17.17711265        5        1
W       96.35012311     -60.71171019      18.85638905        3        1
Se      97.29076688     -59.04224193      20.53566545        4        1
Se      97.29076688     -59.04224193      17.17711265        5        1
W       93.51729979     -59.11558928      18.85638905        3        1
Se      94.45794357     -57.44612102      20.53566545        4        1
Se      94.45794357     -57.44612102      17.17711265        5        1
W       90.68447648     -57.51946837      18.85638905        3        1
Se      91.62512025     -55.85000011      20.53566545        4        1
Se      91.62512025     -55.85000011      17.17711265        5        1
W       87.85165316     -55.92334746      18.85638905        3        1
Se      88.79229694     -54.25387920      20.53566545        4        1
Se      88.79229694     -54.25387920      17.17711265        5        1
W       85.01882985     -54.32722655      18.85638905        3        1
Se      85.95947362     -52.65775829      20.53566545        4        1
Se      85.95947362     -52.65775829      17.17711265        5        1
W       82.18600653     -52.73110564      18.85638905        3        1
Se      83.12665031     -51.06163738      20.53566545        4        1
Se      83.12665031     -51.06163738      17.17711265        5        1
W       79.35318322     -51.13498473      18.85638905        3        1
Se      80.29382699     -49.46551647      20.53566545        4        1
Se      80.29382699     -49.46551647      17.17711265        5        1
W       76.52035990     -49.53886382      18.85638905        3        1
Se      77.46100368     -47.86939556      20.53566545        4        1
Se      77.46100368     -47.86939556      17.17711265        5        1
W       73.68753659     -47.94274291      18.85638905        3        1
Se      74.62818036     -46.27327465      20.53566545        4        1
Se      74.62818036     -46.27327465      17.17711265        5        1
W       70.85471327     -46.34662199      18.85638905        3        1
Se      71.79535705     -44.67715374      20.53566545        4        1
Se      71.79535705     -44.67715374      17.17711265        5        1
W       68.02188996     -44.75050108      18.85638905        3        1
Se      68.96253373     -43.08103283      20.53566545        4        1
Se      68.96253373     -43.08103283      17.17711265        5        1
W       65.18906664     -43.15438017      18.85638905        3        1
Se      66.12971042     -41.48491192      20.53566545        4        1
Se      66.12971042     -41.48491192      17.17711265        5        1
W       62.35624333     -41.55825926      18.85638905        3        1
Se      63.29688710     -39.88879101      20.53566545        4        1
Se      63.29688710     -39.88879101      17.17711265        5        1
W       59.52342001     -39.96213835      18.85638905        3        1
Se      60.46406379     -38.29267010      20.53566545        4        1
Se      60.46406379     -38.29267010      17.17711265        5        1
W       56.69059670     -38.36601744      18.85638905        3        1
Se      57.63124047     -36.69654918      20.53566545        4        1
Se      57.63124047     -36.69654918      17.17711265        5        1
W       53.85777338     -36.76989653      18.85638905        3        1
Se      54.79841716     -35.10042827      20.53566545        4        1
Se      54.79841716     -35.10042827      17.17711265        5        1
W       51.02495007     -35.17377562      18.85638905        3        1
Se      51.96559384     -33.50430736      20.53566545        4        1
Se      51.96559384     -33.50430736      17.17711265        5        1
W       48.19212675     -33.57765471      18.85638905        3        1
Se      49.13277053     -31.90818645      20.53566545        4        1
Se      49.13277053     -31.90818645      17.17711265        5        1
W       45.35930344     -31.98153380      18.85638905        3        1
Se      46.29994721     -30.31206554      20.53566545        4        1
Se      46.29994721     -30.31206554      17.17711265        5        1
W       42.52648012     -30.38541289      18.85638905        3        1
Se      43.46712390     -28.71594463      20.53566545        4        1
Se      43.46712390     -28.71594463      17.17711265        5        1
W       39.69365681     -28.78929198      18.85638905        3        1
Se      40.63430058     -27.11982372      20.53566545        4        1
Se      40.63430058     -27.11982372      17.17711265        5        1
W       36.86083349     -27.19317107      18.85638905        3        1
Se      37.80147727     -25.52370281      20.53566545        4        1
Se      37.80147727     -25.52370281      17.17711265        5        1
W       34.02801018     -25.59705016      18.85638905        3        1
Se      34.96865395     -23.92758190      20.53566545        4        1
Se      34.96865395     -23.92758190      17.17711265        5        1
W       31.19518686     -24.00092925      18.85638905        3        1
Se      32.13583064     -22.33146099      20.53566545        4        1
Se      32.13583064     -22.33146099      17.17711265        5        1
W       28.36236355     -22.40480834      18.85638905        3        1
Se      29.30300732     -20.73534008      20.53566545        4        1
Se      29.30300732     -20.73534008      17.17711265        5        1
W       25.52954023     -20.80868743      18.85638905        3        1
Se      26.47018401     -19.13921917      20.53566545        4        1
Se      26.47018401     -19.13921917      17.17711265        5        1
W       22.69671692     -19.21256652      18.85638905        3        1
Se      23.63736069     -17.54309826      20.53566545        4        1
Se      23.63736069     -17.54309826      17.17711265        5        1
W       19.86389361     -17.61644561      18.85638905        3        1
Se      20.80453738     -15.94697735      20.53566545        4        1
Se      20.80453738     -15.94697735      17.17711265        5        1
W       17.03107029     -16.02032469      18.85638905        3        1
Se      17.97171406     -14.35085644      20.53566545        4        1
Se      17.97171406     -14.35085644      17.17711265        5        1
W       14.19824698     -14.42420378      18.85638905        3        1
Se      15.13889075     -12.75473553      20.53566545        4        1
Se      15.13889075     -12.75473553      17.17711265        5        1
W       11.36542366     -12.82808287      18.85638905        3        1
Se      12.30606744     -11.15861462      20.53566545        4        1
Se      12.30606744     -11.15861462      17.17711265        5        1
W        8.53260035     -11.23196196      18.85638905        3        1
Se       9.47324412      -9.56249371      20.53566545        4        1
Se       9.47324412      -9.56249371      17.17711265        5        1
W        5.69977703      -9.63584105      18.85638905        3        1
Se       6.64042081      -7.96637279      20.53566545        4        1
Se       6.64042081      -7.96637279      17.17711265        5        1
W      157.75071520      -8.03972014      18.85638905        3        1
Se       3.80759749      -6.37025188      20.53566545        4        1
Se       3.80759749      -6.37025188      17.17711265        5        1
W      154.91789188      -6.44359923      18.85638905        3        1
Se     155.85853565      -4.77413097      20.53566545        4        1
Se     155.85853565      -4.77413097      17.17711265        5        1
W      226.62586519    -130.88191466      18.85638905        3        1
Se     227.56650896    -129.21244641      20.53566545        4        1
Se     227.56650896    -129.21244641      17.17711265        5        1
W      223.79304187    -129.28579375      18.85638905        3        1
Se     224.73368565    -127.61632550      20.53566545        4        1
Se     224.73368565    -127.61632550      17.17711265        5        1
W      220.96021856    -127.68967284      18.85638905        3        1
Se     221.90086233    -126.02020459      20.53566545        4        1
Se     221.90086233    -126.02020459      17.17711265        5        1
W      218.12739524    -126.09355193      18.85638905        3        1
Se     219.06803902    -124.42408367      20.53566545        4        1
Se     219.06803902    -124.42408367      17.17711265        5        1
W      215.29457193    -124.49743102      18.85638905        3        1
Se     216.23521570    -122.82796276      20.53566545        4        1
Se     216.23521570    -122.82796276      17.17711265        5        1
W      212.46174861    -122.90131011      18.85638905        3        1
Se     213.40239239    -121.23184185      20.53566545        4        1
Se     213.40239239    -121.23184185      17.17711265        5        1
W      209.62892530    -121.30518920      18.85638905        3        1
Se     210.56956907    -119.63572094      20.53566545        4        1
Se     210.56956907    -119.63572094      17.17711265        5        1
W      206.79610198    -119.70906829      18.85638905        3        1
Se     207.73674576    -118.03960003      20.53566545        4        1
Se     207.73674576    -118.03960003      17.17711265        5        1
W      203.96327867    -118.11294738      18.85638905        3        1
Se     204.90392244    -116.44347912      20.53566545        4        1
Se     204.90392244    -116.44347912      17.17711265        5        1
W      201.13045535    -116.51682647      18.85638905        3        1
Se     202.07109913    -114.84735821      20.53566545        4        1
Se     202.07109913    -114.84735821      17.17711265        5        1
W      198.29763204    -114.92070556      18.85638905        3        1
Se     199.23827581    -113.25123730      20.53566545        4        1
Se     199.23827581    -113.25123730      17.17711265        5        1
W      195.46480872    -113.32458465      18.85638905        3        1
Se     196.40545250    -111.65511639      20.53566545        4        1
Se     196.40545250    -111.65511639      17.17711265        5        1
W      192.63198541    -111.72846374      18.85638905        3        1
Se     193.57262918    -110.05899548      20.53566545        4        1
Se     193.57262918    -110.05899548      17.17711265        5        1
W      189.79916209    -110.13234283      18.85638905        3        1
Se     190.73980587    -108.46287457      20.53566545        4        1
Se     190.73980587    -108.46287457      17.17711265        5        1
W      186.96633878    -108.53622192      18.85638905        3        1
Se     187.90698255    -106.86675366      20.53566545        4        1
Se     187.90698255    -106.86675366      17.17711265        5        1
W      184.13351546    -106.94010101      18.85638905        3        1
Se     185.07415924    -105.27063275      20.53566545        4        1
Se     185.07415924    -105.27063275      17.17711265        5        1
W      181.30069215    -105.34398010      18.85638905        3        1
Se     182.24133592    -103.67451184      20.53566545        4        1
Se     182.24133592    -103.67451184      17.17711265        5        1
W      178.46786883    -103.74785918      18.85638905        3        1
Se     179.40851261    -102.07839093      20.53566545        4        1
Se     179.40851261    -102.07839093      17.17711265        5        1
W      175.63504552    -102.15173827      18.85638905        3        1
Se     176.57568929    -100.48227002      20.53566545        4        1
Se     176.57568929    -100.48227002      17.17711265        5        1
W      172.80222221    -100.55561736      18.85638905        3        1
Se     173.74286598     -98.88614911      20.53566545        4        1
Se     173.74286598     -98.88614911      17.17711265        5        1
W      169.96939889     -98.95949645      18.85638905        3        1
Se     170.91004266     -97.29002820      20.53566545        4        1
Se     170.91004266     -97.29002820      17.17711265        5        1
W      167.13657558     -97.36337554      18.85638905        3        1
Se     168.07721935     -95.69390729      20.53566545        4        1
Se     168.07721935     -95.69390729      17.17711265        5        1
W      164.30375226     -95.76725463      18.85638905        3        1
Se     165.24439604     -94.09778637      20.53566545        4        1
Se     165.24439604     -94.09778637      17.17711265        5        1
W      161.47092895     -94.17113372      18.85638905        3        1
Se     162.41157272     -92.50166546      20.53566545        4        1
Se     162.41157272     -92.50166546      17.17711265        5        1
W      158.63810563     -92.57501281      18.85638905        3        1
Se     159.57874941     -90.90554455      20.53566545        4        1
Se     159.57874941     -90.90554455      17.17711265        5        1
W      155.80528232     -90.97889190      18.85638905        3        1
Se     156.74592609     -89.30942364      20.53566545        4        1
Se     156.74592609     -89.30942364      17.17711265        5        1
W      152.97245900     -89.38277099      18.85638905        3        1
Se     153.91310278     -87.71330273      20.53566545        4        1
Se     153.91310278     -87.71330273      17.17711265        5        1
W      150.13963569     -87.78665008      18.85638905        3        1
Se     151.08027946     -86.11718182      20.53566545        4        1
Se     151.08027946     -86.11718182      17.17711265        5        1
W      147.30681237     -86.19052917      18.85638905        3        1
Se     148.24745615     -84.52106091      20.53566545        4        1
Se     148.24745615     -84.52106091      17.17711265        5        1
W      144.47398906     -84.59440826      18.85638905        3        1
Se     145.41463283     -82.92494000      20.53566545        4        1
Se     145.41463283     -82.92494000      17.17711265        5        1
W      141.64116574     -82.99828735      18.85638905        3        1
Se     142.58180952     -81.32881909      20.53566545        4        1
Se     142.58180952     -81.32881909      17.17711265        5        1
W      138.80834243     -81.40216644      18.85638905        3        1
Se     139.74898620     -79.73269818      20.53566545        4        1
Se     139.74898620     -79.73269818      17.17711265        5        1
W      135.97551911     -79.80604553      18.85638905        3        1
Se     136.91616289     -78.13657727      20.53566545        4        1
Se     136.91616289     -78.13657727      17.17711265        5        1
W      133.14269580     -78.20992462      18.85638905        3        1
Se     134.08333957     -76.54045636      20.53566545        4        1
Se     134.08333957     -76.54045636      17.17711265        5        1
W      130.30987248     -76.61380371      18.85638905        3        1
Se     131.25051626     -74.94433545      20.53566545        4        1
Se     131.25051626     -74.94433545      17.17711265        5        1
W      127.47704917     -75.01768280      18.85638905        3        1
Se     128.41769294     -73.34821454      20.53566545        4        1
Se     128.41769294     -73.34821454      17.17711265        5        1
W      124.64422585     -73.42156188      18.85638905        3        1
Se     125.58486963     -71.75209363      20.53566545        4        1
Se     125.58486963     -71.75209363      17.17711265        5        1
W      121.81140254     -71.82544097      18.85638905        3        1
Se     122.75204631     -70.15597272      20.53566545        4        1
Se     122.75204631     -70.15597272      17.17711265        5        1
W      118.97857922     -70.22932006      18.85638905        3        1
Se     119.91922300     -68.55985181      20.53566545        4        1
Se     119.91922300     -68.55985181      17.17711265        5        1
W      116.14575591     -68.63319915      18.85638905        3        1
Se     117.08639968     -66.96373090      20.53566545        4        1
Se     117.08639968     -66.96373090      17.17711265        5        1
W      113.31293259     -67.03707824      18.85638905        3        1
Se     114.25357637     -65.36760998      20.53566545        4        1
Se     114.25357637     -65.36760998      17.17711265        5        1
W      110.48010928     -65.44095733      18.85638905        3        1
Se     111.42075305     -63.77148907      20.53566545        4        1
Se     111.42075305     -63.77148907      17.17711265        5        1
W      107.64728596     -63.84483642      18.85638905        3        1
Se     108.58792974     -62.17536816      20.53566545        4        1
Se     108.58792974     -62.17536816      17.17711265        5        1
W      104.81446265     -62.24871551      18.85638905        3        1
Se     105.75510642     -60.57924725      20.53566545        4        1
Se     105.75510642     -60.57924725      17.17711265        5        1
W      101.98163933     -60.65259460      18.85638905        3        1
Se     102.92228311     -58.98312634      20.53566545        4        1
Se     102.92228311     -58.98312634      17.17711265        5        1
W       99.14881602     -59.05647369      18.85638905        3        1
Se     100.08945979     -57.38700543      20.53566545        4        1
Se     100.08945979     -57.38700543      17.17711265        5        1
W       96.31599270     -57.46035278      18.85638905        3        1
Se      97.25663648     -55.79088452      20.53566545        4        1
Se      97.25663648     -55.79088452      17.17711265        5        1
W       93.48316939     -55.86423187      18.85638905        3        1
Se      94.42381316     -54.19476361      20.53566545        4        1
Se      94.42381316     -54.19476361      17.17711265        5        1
W       90.65034607     -54.26811096      18.85638905        3        1
Se      91.59098985     -52.59864270      20.53566545        4        1
Se      91.59098985     -52.59864270      17.17711265        5        1
W       87.81752276     -52.67199005      18.85638905        3        1
Se      88.75816653     -51.00252179      20.53566545        4        1
Se      88.75816653     -51.00252179      17.17711265        5        1
W       84.98469945     -51.07586914      18.85638905        3        1
Se      85.92534322     -49.40640088      20.53566545        4        1
Se      85.92534322     -49.40640088      17.17711265        5        1
W       82.15187613     -49.47974823      18.85638905        3        1
Se      83.09251990     -47.81027997      20.53566545        4        1
Se      83.09251990     -47.81027997      17.17711265        5        1
W       79.31905282     -47.88362732      18.85638905        3        1
Se      80.25969659     -46.21415906      20.53566545        4        1
Se      80.25969659     -46.21415906      17.17711265        5        1
W       76.48622950     -46.28750641      18.85638905        3        1
Se      77.42687328     -44.61803815      20.53566545        4        1
Se      77.42687328     -44.61803815      17.17711265        5        1
W       73.65340619     -44.69138550      18.85638905        3        1
Se      74.59404996     -43.02191724      20.53566545        4        1
Se      74.59404996     -43.02191724      17.17711265        5        1
W       70.82058287     -43.09526458      18.85638905        3        1
Se      71.76122665     -41.42579633      20.53566545        4        1
Se      71.76122665     -41.42579633      17.17711265        5        1
W       67.98775956     -41.49914367      18.85638905        3        1
Se      68.92840333     -39.82967542      20.53566545        4        1
Se      68.92840333     -39.82967542      17.17711265        5        1
W       65.15493624     -39.90302276      18.85638905        3        1
Se      66.09558002     -38.23355451      20.53566545        4        1
Se      66.09558002     -38.23355451      17.17711265        5        1
W       62.32211293     -38.30690185      18.85638905        3        1
Se      63.26275670     -36.63743360      20.53566545        4        1
Se      63.26275670     -36.63743360      17.17711265        5        1
W       59.48928961     -36.71078094      18.85638905        3        1
Se      60.42993339     -35.04131268      20.53566545        4        1
Se      60.42993339     -35.04131268      17.17711265        5        1
W       56.65646630     -35.11466003      18.85638905        3        1
Se      57.59711007     -33.44519177      20.53566545        4        1
Se      57.59711007     -33.44519177      17.17711265        5        1
W       53.82364298     -33.51853912      18.85638905        3        1
Se      54.76428676     -31.84907086      20.53566545        4        1
Se      54.76428676     -31.84907086      17.17711265        5        1
W       50.99081967     -31.92241821      18.85638905        3        1
Se      51.93146344     -30.25294995      20.53566545        4        1
Se      51.93146344     -30.25294995      17.17711265        5        1
W       48.15799635     -30.32629730      18.85638905        3        1
Se      49.09864013     -28.65682904      20.53566545        4        1
Se      49.09864013     -28.65682904      17.17711265        5        1
W       45.32517304     -28.73017639      18.85638905        3        1
Se      46.26581681     -27.06070813      20.53566545        4        1
Se      46.26581681     -27.06070813      17.17711265        5        1
W       42.49234972     -27.13405548      18.85638905        3        1
Se      43.43299350     -25.46458722      20.53566545        4        1
Se      43.43299350     -25.46458722      17.17711265        5        1
W       39.65952641     -25.53793457      18.85638905        3        1
Se      40.60017018     -23.86846631      20.53566545        4        1
Se      40.60017018     -23.86846631      17.17711265        5        1
W       36.82670309     -23.94181366      18.85638905        3        1
Se      37.76734687     -22.27234540      20.53566545        4        1
Se      37.76734687     -22.27234540      17.17711265        5        1
W       33.99387978     -22.34569275      18.85638905        3        1
Se      34.93452355     -20.67622449      20.53566545        4        1
Se      34.93452355     -20.67622449      17.17711265        5        1
W       31.16105646     -20.74957184      18.85638905        3        1
Se      32.10170024     -19.08010358      20.53566545        4        1
Se      32.10170024     -19.08010358      17.17711265        5        1
W       28.32823315     -19.15345093      18.85638905        3        1
Se      29.26887692     -17.48398267      20.53566545        4        1
Se      29.26887692     -17.48398267      17.17711265        5        1
W       25.49540983     -17.55733002      18.85638905        3        1
Se      26.43605361     -15.88786176      20.53566545        4        1
Se      26.43605361     -15.88786176      17.17711265        5        1
W       22.66258652     -15.96120911      18.85638905        3        1
Se      23.60323029     -14.29174085      20.53566545        4        1
Se      23.60323029     -14.29174085      17.17711265        5        1
W       19.82976320     -14.36508819      18.85638905        3        1
Se      20.77040698     -12.69561994      20.53566545        4        1
Se      20.77040698     -12.69561994      17.17711265        5        1
W       16.99693989     -12.76896728      18.85638905        3        1
Se      17.93758366     -11.09949903      20.53566545        4        1
Se      17.93758366     -11.09949903      17.17711265        5        1
W       14.16411657     -11.17284637      18.85638905        3        1
Se      15.10476035      -9.50337812      20.53566545        4        1
Se      15.10476035      -9.50337812      17.17711265        5        1
W       11.33129326      -9.57672546      18.85638905        3        1
Se      12.27193703      -7.90725721      20.53566545        4        1
Se      12.27193703      -7.90725721      17.17711265        5        1
W        8.49846994      -7.98060455      18.85638905        3        1
Se       9.43911372      -6.31113630      20.53566545        4        1
Se       9.43911372      -6.31113630      17.17711265        5        1
W        5.66564663      -6.38448364      18.85638905        3        1
Se       6.60629040      -4.71501538      20.53566545        4        1
Se       6.60629040      -4.71501538      17.17711265        5        1
W        2.83282331      -4.78836273      18.85638905        3        1
Se       3.77346709      -3.11889447      20.53566545        4        1
Se       3.77346709      -3.11889447      17.17711265        5        1
W      154.88376148      -3.19224182      18.85638905        3        1
Se       0.94064377      -1.52277356      20.53566545        4        1
Se       0.94064377      -1.52277356      17.17711265        5        1
W      152.05093816      -1.59612091      18.85638905        3        1
Se     230.43346268    -134.05992473      20.53566545        4        1
Se     230.43346268    -134.05992473      17.17711265        5        1
W      223.75891147    -126.03443634      18.85638905        3        1
Se     224.69955525    -124.36496809      20.53566545        4        1
Se     224.69955525    -124.36496809      17.17711265        5        1
W      220.92608816    -124.43831543      18.85638905        3        1
Se     221.86673193    -122.76884717      20.53566545        4        1
Se     221.86673193    -122.76884717      17.17711265        5        1
W      218.09326484    -122.84219452      18.85638905        3        1
Se     219.03390862    -121.17272626      20.53566545        4        1
Se     219.03390862    -121.17272626      17.17711265        5        1
W      215.26044153    -121.24607361      18.85638905        3        1
Se     216.20108530    -119.57660535      20.53566545        4        1
Se     216.20108530    -119.57660535      17.17711265        5        1
W      212.42761821    -119.64995270      18.85638905        3        1
Se     213.36826199    -117.98048444      20.53566545        4        1
Se     213.36826199    -117.98048444      17.17711265        5        1
W      209.59479490    -118.05383179      18.85638905        3        1
Se     210.53543867    -116.38436353      20.53566545        4        1
Se     210.53543867    -116.38436353      17.17711265        5        1
W      206.76197158    -116.45771088      18.85638905        3        1
Se     207.70261536    -114.78824262      20.53566545        4        1
Se     207.70261536    -114.78824262      17.17711265        5        1
W      203.92914827    -114.86158997      18.85638905        3        1
Se     204.86979204    -113.19212171      20.53566545        4        1
Se     204.86979204    -113.19212171      17.17711265        5        1
W      201.09632495    -113.26546906      18.85638905        3        1
Se     202.03696873    -111.59600080      20.53566545        4        1
Se     202.03696873    -111.59600080      17.17711265        5        1
W      198.26350164    -111.66934815      18.85638905        3        1
Se     199.20414541    -109.99987989      20.53566545        4        1
Se     199.20414541    -109.99987989      17.17711265        5        1
W      195.43067832    -110.07322724      18.85638905        3        1
Se     196.37132210    -108.40375898      20.53566545        4        1
Se     196.37132210    -108.40375898      17.17711265        5        1
W      192.59785501    -108.47710633      18.85638905        3        1
Se     193.53849878    -106.80763807      20.53566545        4        1
Se     193.53849878    -106.80763807      17.17711265        5        1
W      189.76503169    -106.88098542      18.85638905        3        1
Se     190.70567547    -105.21151716      20.53566545        4        1
Se     190.70567547    -105.21151716      17.17711265        5        1
W      186.93220838    -105.28486451      18.85638905        3        1
Se     187.87285215    -103.61539625      20.53566545        4        1
Se     187.87285215    -103.61539625      17.17711265        5        1
W      184.09938506    -103.68874360      18.85638905        3        1
Se     185.04002884    -102.01927534      20.53566545        4        1
Se     185.04002884    -102.01927534      17.17711265        5        1
W      181.26656175    -102.09262269      18.85638905        3        1
Se     182.20720552    -100.42315443      20.53566545        4        1
Se     182.20720552    -100.42315443      17.17711265        5        1
W      178.43373843    -100.49650177      18.85638905        3        1
Se     179.37438221     -98.82703352      20.53566545        4        1
Se     179.37438221     -98.82703352      17.17711265        5        1
W      175.60091512     -98.90038086      18.85638905        3        1
Se     176.54155889     -97.23091261      20.53566545        4        1
Se     176.54155889     -97.23091261      17.17711265        5        1
W      172.76809180     -97.30425995      18.85638905        3        1
Se     173.70873558     -95.63479170      20.53566545        4        1
Se     173.70873558     -95.63479170      17.17711265        5        1
W      169.93526849     -95.70813904      18.85638905        3        1
Se     170.87591226     -94.03867079      20.53566545        4        1
Se     170.87591226     -94.03867079      17.17711265        5        1
W      167.10244517     -94.11201813      18.85638905        3        1
Se     168.04308895     -92.44254987      20.53566545        4        1
Se     168.04308895     -92.44254987      17.17711265        5        1
W      164.26962186     -92.51589722      18.85638905        3        1
Se     165.21026563     -90.84642896      20.53566545        4        1
Se     165.21026563     -90.84642896      17.17711265        5        1
W      161.43679854     -90.91977631      18.85638905        3        1
Se     162.37744232     -89.25030805      20.53566545        4        1
Se     162.37744232     -89.25030805      17.17711265        5        1
W      158.60397523     -89.32365540      18.85638905        3        1
Se     159.54461900     -87.65418714      20.53566545        4        1
Se     159.54461900     -87.65418714      17.17711265        5        1
W      155.77115191     -87.72753449      18.85638905        3        1
Se     156.71179569     -86.05806623      20.53566545        4        1
Se     156.71179569     -86.05806623      17.17711265        5        1
W      152.93832860     -86.13141358      18.85638905        3        1
Se     153.87897237     -84.46194532      20.53566545        4        1
Se     153.87897237     -84.46194532      17.17711265        5        1
W      150.10550529     -84.53529267      18.85638905        3        1
Se     151.04614906     -82.86582441      20.53566545        4        1
Se     151.04614906     -82.86582441      17.17711265        5        1
W      147.27268197     -82.93917176      18.85638905        3        1
Se     148.21332574     -81.26970350      20.53566545        4        1
Se     148.21332574     -81.26970350      17.17711265        5        1
W      144.43985866     -81.34305085      18.85638905        3        1
Se     145.38050243     -79.67358259      20.53566545        4        1
Se     145.38050243     -79.67358259      17.17711265        5        1
W      141.60703534     -79.74692994      18.85638905        3        1
Se     142.54767912     -78.07746168      20.53566545        4        1
Se     142.54767912     -78.07746168      17.17711265        5        1
W      138.77421203     -78.15080903      18.85638905        3        1
Se     139.71485580     -76.48134077      20.53566545        4        1
Se     139.71485580     -76.48134077      17.17711265        5        1
W      135.94138871     -76.55468812      18.85638905        3        1
Se     136.88203249     -74.88521986      20.53566545        4        1
Se     136.88203249     -74.88521986      17.17711265        5        1
W      133.10856540     -74.95856721      18.85638905        3        1
Se     134.04920917     -73.28909895      20.53566545        4        1
Se     134.04920917     -73.28909895      17.17711265        5        1
W      130.27574208     -73.36244630      18.85638905        3        1
Se     131.21638586     -71.69297804      20.53566545        4        1
Se     131.21638586     -71.69297804      17.17711265        5        1
W      127.44291877     -71.76632538      18.85638905        3        1
Se     128.38356254     -70.09685713      20.53566545        4        1
Se     128.38356254     -70.09685713      17.17711265        5        1
W      124.61009545     -70.17020447      18.85638905        3        1
Se     125.55073923     -68.50073622      20.53566545        4        1
Se     125.55073923     -68.50073622      17.17711265        5        1
W      121.77727214     -68.57408356      18.85638905        3        1
Se     122.71791591     -66.90461531      20.53566545        4        1
Se     122.71791591     -66.90461531      17.17711265        5        1
W      118.94444882     -66.97796265      18.85638905        3        1
Se     119.88509260     -65.30849440      20.53566545        4        1
Se     119.88509260     -65.30849440      17.17711265        5        1
W      116.11162551     -65.38184174      18.85638905        3        1
Se     117.05226928     -63.71237349      20.53566545        4        1
Se     117.05226928     -63.71237349      17.17711265        5        1
W      113.27880219     -63.78572083      18.85638905        3        1
Se     114.21944597     -62.11625257      20.53566545        4        1
Se     114.21944597     -62.11625257      17.17711265        5        1
W      110.44597888     -62.18959992      18.85638905        3        1
Se     111.38662265     -60.52013166      20.53566545        4        1
Se     111.38662265     -60.52013166      17.17711265        5        1
W      107.61315556     -60.59347901      18.85638905        3        1
Se     108.55379934     -58.92401075      20.53566545        4        1
Se     108.55379934     -58.92401075      17.17711265        5        1
W      104.78033225     -58.99735810      18.85638905        3        1
Se     105.72097602     -57.32788984      20.53566545        4        1
Se     105.72097602     -57.32788984      17.17711265        5        1
W      101.94750893     -57.40123719      18.85638905        3        1
Se     102.88815271     -55.73176893      20.53566545        4        1
Se     102.88815271     -55.73176893      17.17711265        5        1
W       99.11468562     -55.80511628      18.85638905        3        1
Se     100.05532939     -54.13564802      20.53566545        4        1
Se     100.05532939     -54.13564802      17.17711265        5        1
W       96.28186230     -54.20899537      18.85638905        3        1
Se      97.22250608     -52.53952711      20.53566545        4        1
Se      97.22250608     -52.53952711      17.17711265        5        1
W       93.44903899     -52.61287446      18.85638905        3        1
Se      94.38968276     -50.94340620      20.53566545        4        1
Se      94.38968276     -50.94340620      17.17711265        5        1
W       90.61621567     -51.01675355      18.85638905        3        1
Se      91.55685945     -49.34728529      20.53566545        4        1
Se      91.55685945     -49.34728529      17.17711265        5        1
W       87.78339236     -49.42063264      18.85638905        3        1
Se      88.72403613     -47.75116438      20.53566545        4        1
Se      88.72403613     -47.75116438      17.17711265        5        1
W       84.95056904     -47.82451173      18.85638905        3        1
Se      85.89121282     -46.15504347      20.53566545        4        1
Se      85.89121282     -46.15504347      17.17711265        5        1
W       82.11774573     -46.22839082      18.85638905        3        1
Se      83.05838950     -44.55892256      20.53566545        4        1
Se      83.05838950     -44.55892256      17.17711265        5        1
W       79.28492241     -44.63226991      18.85638905        3        1
Se      80.22556619     -42.96280165      20.53566545        4        1
Se      80.22556619     -42.96280165      17.17711265        5        1
W       76.45209910     -43.03614900      18.85638905        3        1
Se      77.39274287     -41.36668074      20.53566545        4        1
Se      77.39274287     -41.36668074      17.17711265        5        1
W       73.61927578     -41.44002808      18.85638905        3        1
Se      74.55991956     -39.77055983      20.53566545        4        1
Se      74.55991956     -39.77055983      17.17711265        5        1
W       70.78645247     -39.84390717      18.85638905        3        1
Se      71.72709624     -38.17443892      20.53566545        4        1
Se      71.72709624     -38.17443892      17.17711265        5        1
W       67.95362915     -38.24778626      18.85638905        3        1
Se      68.89427293     -36.57831801      20.53566545        4        1
Se      68.89427293     -36.57831801      17.17711265        5        1
W       65.12080584     -36.65166535      18.85638905        3        1
Se      66.06144961     -34.98219710      20.53566545        4        1
Se      66.06144961     -34.98219710      17.17711265        5        1
W       62.28798253     -35.05554444      18.85638905        3        1
Se      63.22862630     -33.38607618      20.53566545        4        1
Se      63.22862630     -33.38607618      17.17711265        5        1
W       59.45515921     -33.45942353      18.85638905        3        1
Se      60.39580298     -31.78995527      20.53566545        4        1
Se      60.39580298     -31.78995527      17.17711265        5        1
W       56.62233590     -31.86330262      18.85638905        3        1
Se      57.56297967     -30.19383436      20.53566545        4        1
Se      57.56297967     -30.19383436      17.17711265        5        1
W       53.78951258     -30.26718171      18.85638905        3        1
Se      54.73015636     -28.59771345      20.53566545        4        1
Se      54.73015636     -28.59771345      17.17711265        5        1
W       50.95668927     -28.67106080      18.85638905        3        1
Se      51.89733304     -27.00159254      20.53566545        4        1
Se      51.89733304     -27.00159254      17.17711265        5        1
W       48.12386595     -27.07493989      18.85638905        3        1
Se      49.06450973     -25.40547163      20.53566545        4        1
Se      49.06450973     -25.40547163      17.17711265        5        1
W       45.29104264     -25.47881898      18.85638905        3        1
Se      46.23168641     -23.80935072      20.53566545        4        1
Se      46.23168641     -23.80935072      17.17711265        5        1
W       42.45821932     -23.88269807      18.85638905        3        1
Se      43.39886310     -22.21322981      20.53566545        4        1
Se      43.39886310     -22.21322981      17.17711265        5        1
W       39.62539601     -22.28657716      18.85638905        3        1
Se      40.56603978     -20.61710890      20.53566545        4        1
Se      40.56603978     -20.61710890      17.17711265        5        1
W       36.79257269     -20.69045625      18.85638905        3        1
Se      37.73321647     -19.02098799      20.53566545        4        1
Se      37.73321647     -19.02098799      17.17711265        5        1
W       33.95974938     -19.09433534      18.85638905        3        1
Se      34.90039315     -17.42486708      20.53566545        4        1
Se      34.90039315     -17.42486708      17.17711265        5        1
W       31.12692606     -17.49821443      18.85638905        3        1
Se      32.06756984     -15.82874617      20.53566545        4        1
Se      32.06756984     -15.82874617      17.17711265        5        1
W       28.29410275     -15.90209352      18.85638905        3        1
Se      29.23474652     -14.23262526      20.53566545        4        1
Se      29.23474652     -14.23262526      17.17711265        5        1
W       25.46127943     -14.30597261      18.85638905        3        1
Se      26.40192321     -12.63650435      20.53566545        4        1
Se      26.40192321     -12.63650435      17.17711265        5        1
W       22.62845612     -12.70985170      18.85638905        3        1
Se      23.56909989     -11.04038344      20.53566545        4        1
Se      23.56909989     -11.04038344      17.17711265        5        1
W       19.79563280     -11.11373078      18.85638905        3        1
Se      20.73627658      -9.44426253      20.53566545        4        1
Se      20.73627658      -9.44426253      17.17711265        5        1
W       16.96280949      -9.51760987      18.85638905        3        1
Se      17.90345326      -7.84814162      20.53566545        4        1
Se      17.90345326      -7.84814162      17.17711265        5        1
W       14.12998617      -7.92148896      18.85638905        3        1
Se      15.07062995      -6.25202071      20.53566545        4        1
Se      15.07062995      -6.25202071      17.17711265        5        1
W       11.29716286      -6.32536805      18.85638905        3        1
Se      12.23780663      -4.65589980      20.53566545        4        1
Se      12.23780663      -4.65589980      17.17711265        5        1
W        8.46433954      -4.72924714      18.85638905        3        1
Se       9.40498332      -3.05977888      20.53566545        4        1
Se       9.40498332      -3.05977888      17.17711265        5        1
W        5.63151623      -3.13312623      18.85638905        3        1
Se       6.57216000      -1.46365797      20.53566545        4        1
Se       6.57216000      -1.46365797      17.17711265        5        1
W      220.89195775    -121.18695802      18.85638905        3        1
Se     221.83260153    -119.51748976      20.53566545        4        1
Se     221.83260153    -119.51748976      17.17711265        5        1
W      218.05913444    -119.59083711      18.85638905        3        1
Se     218.99977821    -117.92136885      20.53566545        4        1
Se     218.99977821    -117.92136885      17.17711265        5        1
W      215.22631113    -117.99471620      18.85638905        3        1
Se     216.16695490    -116.32524794      20.53566545        4        1
Se     216.16695490    -116.32524794      17.17711265        5        1
W      212.39348781    -116.39859529      18.85638905        3        1
Se     213.33413158    -114.72912703      20.53566545        4        1
Se     213.33413158    -114.72912703      17.17711265        5        1
W      209.56066450    -114.80247438      18.85638905        3        1
Se     210.50130827    -113.13300612      20.53566545        4        1
Se     210.50130827    -113.13300612      17.17711265        5        1
W      206.72784118    -113.20635347      18.85638905        3        1
Se     207.66848495    -111.53688521      20.53566545        4        1
Se     207.66848495    -111.53688521      17.17711265        5        1
W      203.89501787    -111.61023256      18.85638905        3        1
Se     204.83566164    -109.94076430      20.53566545        4        1
Se     204.83566164    -109.94076430      17.17711265        5        1
W      201.06219455    -110.01411165      18.85638905        3        1
Se     202.00283833    -108.34464339      20.53566545        4        1
Se     202.00283833    -108.34464339      17.17711265        5        1
W      198.22937124    -108.41799074      18.85638905        3        1
Se     199.17001501    -106.74852248      20.53566545        4        1
Se     199.17001501    -106.74852248      17.17711265        5        1
W      195.39654792    -106.82186983      18.85638905        3        1
Se     196.33719170    -105.15240157      20.53566545        4        1
Se     196.33719170    -105.15240157      17.17711265        5        1
W      192.56372461    -105.22574892      18.85638905        3        1
Se     193.50436838    -103.55628066      20.53566545        4        1
Se     193.50436838    -103.55628066      17.17711265        5        1
W      189.73090129    -103.62962801      18.85638905        3        1
Se     190.67154507    -101.96015975      20.53566545        4        1
Se     190.67154507    -101.96015975      17.17711265        5        1
W      186.89807798    -102.03350710      18.85638905        3        1
Se     187.83872175    -100.36403884      20.53566545        4        1
Se     187.83872175    -100.36403884      17.17711265        5        1
W      184.06525466    -100.43738619      18.85638905        3        1
Se     185.00589844     -98.76791793      20.53566545        4        1
Se     185.00589844     -98.76791793      17.17711265        5        1
W      181.23243135     -98.84126527      18.85638905        3        1
Se     182.17307512     -97.17179702      20.53566545        4        1
Se     182.17307512     -97.17179702      17.17711265        5        1
W      178.39960803     -97.24514436      18.85638905        3        1
Se     179.34025181     -95.57567611      20.53566545        4        1
Se     179.34025181     -95.57567611      17.17711265        5        1
W      175.56678472     -95.64902345      18.85638905        3        1
Se     176.50742849     -93.97955520      20.53566545        4        1
Se     176.50742849     -93.97955520      17.17711265        5        1
W      172.73396140     -94.05290254      18.85638905        3        1
Se     173.67460518     -92.38343429      20.53566545        4        1
Se     173.67460518     -92.38343429      17.17711265        5        1
W      169.90113809     -92.45678163      18.85638905        3        1
Se     170.84178186     -90.78731337      20.53566545        4        1
Se     170.84178186     -90.78731337      17.17711265        5        1
W      167.06831477     -90.86066072      18.85638905        3        1
Se     168.00895855     -89.19119246      20.53566545        4        1
Se     168.00895855     -89.19119246      17.17711265        5        1
W      164.23549146     -89.26453981      18.85638905        3        1
Se     165.17613523     -87.59507155      20.53566545        4        1
Se     165.17613523     -87.59507155      17.17711265        5        1
W      161.40266814     -87.66841890      18.85638905        3        1
Se     162.34331192     -85.99895064      20.53566545        4        1
Se     162.34331192     -85.99895064      17.17711265        5        1
W      158.56984483     -86.07229799      18.85638905        3        1
Se     159.51048860     -84.40282973      20.53566545        4        1
Se     159.51048860     -84.40282973      17.17711265        5        1
W      155.73702151     -84.47617708      18.85638905        3        1
Se     156.67766529     -82.80670882      20.53566545        4        1
Se     156.67766529     -82.80670882      17.17711265        5        1
W      152.90419820     -82.88005617      18.85638905        3        1
Se     153.84484197     -81.21058791      20.53566545        4        1
Se     153.84484197     -81.21058791      17.17711265        5        1
W      150.07137488     -81.28393526      18.85638905        3        1
Se     151.01201866     -79.61446700      20.53566545        4        1
Se     151.01201866     -79.61446700      17.17711265        5        1
W      147.23855157     -79.68781435      18.85638905        3        1
Se     148.17919534     -78.01834609      20.53566545        4        1
Se     148.17919534     -78.01834609      17.17711265        5        1
W      144.40572825     -78.09169344      18.85638905        3        1
Se     145.34637203     -76.42222518      20.53566545        4        1
Se     145.34637203     -76.42222518      17.17711265        5        1
W      141.57290494     -76.49557253      18.85638905        3        1
Se     142.51354871     -74.82610427      20.53566545        4        1
Se     142.51354871     -74.82610427      17.17711265        5        1
W      138.74008162     -74.89945162      18.85638905        3        1
Se     139.68072540     -73.22998336      20.53566545        4        1
Se     139.68072540     -73.22998336      17.17711265        5        1
W      135.90725831     -73.30333071      18.85638905        3        1
Se     136.84790208     -71.63386245      20.53566545        4        1
Se     136.84790208     -71.63386245      17.17711265        5        1
W      133.07443499     -71.70720980      18.85638905        3        1
Se     134.01507877     -70.03774154      20.53566545        4        1
Se     134.01507877     -70.03774154      17.17711265        5        1
W      130.24161168     -70.11108889      18.85638905        3        1
Se     131.18225545     -68.44162063      20.53566545        4        1
Se     131.18225545     -68.44162063      17.17711265        5        1
W      127.40878837     -68.51496797      18.85638905        3        1
Se     128.34943214     -66.84549972      20.53566545        4        1
Se     128.34943214     -66.84549972      17.17711265        5        1
W      124.57596505     -66.91884706      18.85638905        3        1
Se     125.51660882     -65.24937881      20.53566545        4        1
Se     125.51660882     -65.24937881      17.17711265        5        1
W      121.74314174     -65.32272615      18.85638905        3        1
Se     122.68378551     -63.65325790      20.53566545        4        1
Se     122.68378551     -63.65325790      17.17711265        5        1
W      118.91031842     -63.72660524      18.85638905        3        1
Se     119.85096219     -62.05713699      20.53566545        4        1
Se     119.85096219     -62.05713699      17.17711265        5        1
W      116.07749511     -62.13048433      18.85638905        3        1
Se     117.01813888     -60.46101607      20.53566545        4        1
Se     117.01813888     -60.46101607      17.17711265        5        1
W      113.24467179     -60.53436342      18.85638905        3        1
Se     114.18531557     -58.86489516      20.53566545        4        1
Se     114.18531557     -58.86489516      17.17711265        5        1
W      110.41184848     -58.93824251      18.85638905        3        1
Se     111.35249225     -57.26877425      20.53566545        4        1
Se     111.35249225     -57.26877425      17.17711265        5        1
W      107.57902516     -57.34212160      18.85638905        3        1
Se     108.51966894     -55.67265334      20.53566545        4        1
Se     108.51966894     -55.67265334      17.17711265        5        1
W      104.74620185     -55.74600069      18.85638905        3        1
Se     105.68684562     -54.07653243      20.53566545        4        1
Se     105.68684562     -54.07653243      17.17711265        5        1
W      101.91337853     -54.14987978      18.85638905        3        1
Se     102.85402231     -52.48041152      20.53566545        4        1
Se     102.85402231     -52.48041152      17.17711265        5        1
W       99.08055522     -52.55375887      18.85638905        3        1
Se     100.02119899     -50.88429061      20.53566545        4        1
Se     100.02119899     -50.88429061      17.17711265        5        1
W       96.24773190     -50.95763796      18.85638905        3        1
Se      97.18837568     -49.28816970      20.53566545        4        1
Se      97.18837568     -49.28816970      17.17711265        5        1
W       93.41490859     -49.36151705      18.85638905        3        1
Se      94.35555236     -47.69204879      20.53566545        4        1
Se      94.35555236     -47.69204879      17.17711265        5        1
W       90.58208527     -47.76539614      18.85638905        3        1
Se      91.52272905     -46.09592788      20.53566545        4        1
Se      91.52272905     -46.09592788      17.17711265        5        1
W       87.74926196     -46.16927523      18.85638905        3        1
Se      88.68990573     -44.49980697      20.53566545        4        1
Se      88.68990573     -44.49980697      17.17711265        5        1
W       84.91643864     -44.57315432      18.85638905        3        1
Se      85.85708242     -42.90368606      20.53566545        4        1
Se      85.85708242     -42.90368606      17.17711265        5        1
W       82.08361533     -42.97703341      18.85638905        3        1
Se      83.02425910     -41.30756515      20.53566545        4        1
Se      83.02425910     -41.30756515      17.17711265        5        1
W       79.25079201     -41.38091250      18.85638905        3        1
Se      80.19143579     -39.71144424      20.53566545        4        1
Se      80.19143579     -39.71144424      17.17711265        5        1
W       76.41796870     -39.78479158      18.85638905        3        1
Se      77.35861247     -38.11532333      20.53566545        4        1
Se      77.35861247     -38.11532333      17.17711265        5        1
W       73.58514538     -38.18867067      18.85638905        3        1
Se      74.52578916     -36.51920242      20.53566545        4        1
Se      74.52578916     -36.51920242      17.17711265        5        1
W       70.75232207     -36.59254976      18.85638905        3        1
Se      71.69296584     -34.92308151      20.53566545        4        1
Se      71.69296584     -34.92308151      17.17711265        5        1
W       67.91949875     -34.99642885      18.85638905        3        1
Se      68.86014253     -33.32696060      20.53566545        4        1
Se      68.86014253     -33.32696060      17.17711265        5        1
W       65.08667544     -33.40030794      18.85638905        3        1
Se      66.02731921     -31.73083969      20.53566545        4        1
Se      66.02731921     -31.73083969      17.17711265        5        1
W       62.25385212     -31.80418703      18.85638905        3        1
Se      63.19449590     -30.13471877      20.53566545        4        1
Se      63.19449590     -30.13471877      17.17711265        5        1
W       59.42102881     -30.20806612      18.85638905        3        1
Se      60.36167258     -28.53859786      20.53566545        4        1
Se      60.36167258     -28.53859786      17.17711265        5        1
W       56.58820549     -28.61194521      18.85638905        3        1
Se      57.52884927     -26.94247695      20.53566545        4        1
Se      57.52884927     -26.94247695      17.17711265        5        1
W       53.75538218     -27.01582430      18.85638905        3        1
Se      54.69602595     -25.34635604      20.53566545        4        1
Se      54.69602595     -25.34635604      17.17711265        5        1
W       50.92255886     -25.41970339      18.85638905        3        1
Se      51.86320264     -23.75023513      20.53566545        4        1
Se      51.86320264     -23.75023513      17.17711265        5        1
W       48.08973555     -23.82358248      18.85638905        3        1
Se      49.03037932     -22.15411422      20.53566545        4        1
Se      49.03037932     -22.15411422      17.17711265        5        1
W       45.25691223     -22.22746157      18.85638905        3        1
Se      46.19755601     -20.55799331      20.53566545        4        1
Se      46.19755601     -20.55799331      17.17711265        5        1
W       42.42408892     -20.63134066      18.85638905        3        1
Se      43.36473269     -18.96187240      20.53566545        4        1
Se      43.36473269     -18.96187240      17.17711265        5        1
W       39.59126560     -19.03521975      18.85638905        3        1
Se      40.53190938     -17.36575149      20.53566545        4        1
Se      40.53190938     -17.36575149      17.17711265        5        1
W       36.75844229     -17.43909884      18.85638905        3        1
Se      37.69908606     -15.76963058      20.53566545        4        1
Se      37.69908606     -15.76963058      17.17711265        5        1
W       33.92561898     -15.84297793      18.85638905        3        1
Se      34.86626275     -14.17350967      20.53566545        4        1
Se      34.86626275     -14.17350967      17.17711265        5        1
W       31.09279566     -14.24685702      18.85638905        3        1
Se      32.03343943     -12.57738876      20.53566545        4        1
Se      32.03343943     -12.57738876      17.17711265        5        1
W       28.25997235     -12.65073611      18.85638905        3        1
Se      29.20061612     -10.98126785      20.53566545        4        1
Se      29.20061612     -10.98126785      17.17711265        5        1
W       25.42714903     -11.05461520      18.85638905        3        1
Se      26.36779281      -9.38514694      20.53566545        4        1
Se      26.36779281      -9.38514694      17.17711265        5        1
W       22.59432572      -9.45849428      18.85638905        3        1
Se      23.53496949      -7.78902603      20.53566545        4        1
Se      23.53496949      -7.78902603      17.17711265        5        1
W       19.76150240      -7.86237337      18.85638905        3        1
Se      20.70214618      -6.19290512      20.53566545        4        1
Se      20.70214618      -6.19290512      17.17711265        5        1
W       16.92867909      -6.26625246      18.85638905        3        1
Se      17.86932286      -4.59678421      20.53566545        4        1
Se      17.86932286      -4.59678421      17.17711265        5        1
W       14.09585577      -4.67013155      18.85638905        3        1
Se      15.03649955      -3.00066330      20.53566545        4        1
Se      15.03649955      -3.00066330      17.17711265        5        1
W       11.26303246      -3.07401064      18.85638905        3        1
Se      12.20367623      -1.40454238      20.53566545        4        1
Se      12.20367623      -1.40454238      17.17711265        5        1
W      218.02500404    -116.33947970      18.85638905        3        1
Se     218.96564781    -114.67001144      20.53566545        4        1
Se     218.96564781    -114.67001144      17.17711265        5        1
W      215.19218072    -114.74335879      18.85638905        3        1
Se     216.13282450    -113.07389053      20.53566545        4        1
Se     216.13282450    -113.07389053      17.17711265        5        1
W      212.35935741    -113.14723788      18.85638905        3        1
Se     213.30000118    -111.47776962      20.53566545        4        1
Se     213.30000118    -111.47776962      17.17711265        5        1
W      209.52653409    -111.55111697      18.85638905        3        1
Se     210.46717787    -109.88164871      20.53566545        4        1
Se     210.46717787    -109.88164871      17.17711265        5        1
W      206.69371078    -109.95499606      18.85638905        3        1
Se     207.63435455    -108.28552780      20.53566545        4        1
Se     207.63435455    -108.28552780      17.17711265        5        1
W      203.86088746    -108.35887515      18.85638905        3        1
Se     204.80153124    -106.68940689      20.53566545        4        1
Se     204.80153124    -106.68940689      17.17711265        5        1
W      201.02806415    -106.76275424      18.85638905        3        1
Se     201.96870792    -105.09328598      20.53566545        4        1
Se     201.96870792    -105.09328598      17.17711265        5        1
W      198.19524083    -105.16663333      18.85638905        3        1
Se     199.13588461    -103.49716507      20.53566545        4        1
Se     199.13588461    -103.49716507      17.17711265        5        1
W      195.36241752    -103.57051242      18.85638905        3        1
Se     196.30306129    -101.90104416      20.53566545        4        1
Se     196.30306129    -101.90104416      17.17711265        5        1
W      192.52959420    -101.97439151      18.85638905        3        1
Se     193.47023798    -100.30492325      20.53566545        4        1
Se     193.47023798    -100.30492325      17.17711265        5        1
W      189.69677089    -100.37827060      18.85638905        3        1
Se     190.63741466     -98.70880234      20.53566545        4        1
Se     190.63741466     -98.70880234      17.17711265        5        1
W      186.86394758     -98.78214969      18.85638905        3        1
Se     187.80459135     -97.11268143      20.53566545        4        1
Se     187.80459135     -97.11268143      17.17711265        5        1
W      184.03112426     -97.18602877      18.85638905        3        1
Se     184.97176803     -95.51656052      20.53566545        4        1
Se     184.97176803     -95.51656052      17.17711265        5        1
W      181.19830095     -95.58990786      18.85638905        3        1
Se     182.13894472     -93.92043961      20.53566545        4        1
Se     182.13894472     -93.92043961      17.17711265        5        1
W      178.36547763     -93.99378695      18.85638905        3        1
Se     179.30612141     -92.32431870      20.53566545        4        1
Se     179.30612141     -92.32431870      17.17711265        5        1
W      175.53265432     -92.39766604      18.85638905        3        1
Se     176.47329809     -90.72819779      20.53566545        4        1
Se     176.47329809     -90.72819779      17.17711265        5        1
W      172.69983100     -90.80154513      18.85638905        3        1
Se     173.64047478     -89.13207688      20.53566545        4        1
Se     173.64047478     -89.13207688      17.17711265        5        1
W      169.86700769     -89.20542422      18.85638905        3        1
Se     170.80765146     -87.53595596      20.53566545        4        1
Se     170.80765146     -87.53595596      17.17711265        5        1
W      167.03418437     -87.60930331      18.85638905        3        1
Se     167.97482815     -85.93983505      20.53566545        4        1
Se     167.97482815     -85.93983505      17.17711265        5        1
W      164.20136106     -86.01318240      18.85638905        3        1
Se     165.14200483     -84.34371414      20.53566545        4        1
Se     165.14200483     -84.34371414      17.17711265        5        1
W      161.36853774     -84.41706149      18.85638905        3        1
Se     162.30918152     -82.74759323      20.53566545        4        1
Se     162.30918152     -82.74759323      17.17711265        5        1
W      158.53571443     -82.82094058      18.85638905        3        1
Se     159.47635820     -81.15147232      20.53566545        4        1
Se     159.47635820     -81.15147232      17.17711265        5        1
W      155.70289111     -81.22481967      18.85638905        3        1
Se     156.64353489     -79.55535141      20.53566545        4        1
Se     156.64353489     -79.55535141      17.17711265        5        1
W      152.87006780     -79.62869876      18.85638905        3        1
Se     153.81071157     -77.95923050      20.53566545        4        1
Se     153.81071157     -77.95923050      17.17711265        5        1
W      150.03724448     -78.03257785      18.85638905        3        1
Se     150.97788826     -76.36310959      20.53566545        4        1
Se     150.97788826     -76.36310959      17.17711265        5        1
W      147.20442117     -76.43645694      18.85638905        3        1
Se     148.14506494     -74.76698868      20.53566545        4        1
Se     148.14506494     -74.76698868      17.17711265        5        1
W      144.37159785     -74.84033603      18.85638905        3        1
Se     145.31224163     -73.17086777      20.53566545        4        1
Se     145.31224163     -73.17086777      17.17711265        5        1
W      141.53877454     -73.24421512      18.85638905        3        1
Se     142.47941831     -71.57474686      20.53566545        4        1
Se     142.47941831     -71.57474686      17.17711265        5        1
W      138.70595122     -71.64809421      18.85638905        3        1
Se     139.64659500     -69.97862595      20.53566545        4        1
Se     139.64659500     -69.97862595      17.17711265        5        1
W      135.87312791     -70.05197330      18.85638905        3        1
Se     136.81377168     -68.38250504      20.53566545        4        1
Se     136.81377168     -68.38250504      17.17711265        5        1
W      133.04030459     -68.45585239      18.85638905        3        1
Se     133.98094837     -66.78638413      20.53566545        4        1
Se     133.98094837     -66.78638413      17.17711265        5        1
W      130.20748128     -66.85973147      18.85638905        3        1
Se     131.14812505     -65.19026322      20.53566545        4        1
Se     131.14812505     -65.19026322      17.17711265        5        1
W      127.37465796     -65.26361056      18.85638905        3        1
Se     128.31530174     -63.59414231      20.53566545        4        1
Se     128.31530174     -63.59414231      17.17711265        5        1
W      124.54183465     -63.66748965      18.85638905        3        1
Se     125.48247842     -61.99802140      20.53566545        4        1
Se     125.48247842     -61.99802140      17.17711265        5        1
W      121.70901133     -62.07136874      18.85638905        3        1
Se     122.64965511     -60.40190049      20.53566545        4        1
Se     122.64965511     -60.40190049      17.17711265        5        1
W      118.87618802     -60.47524783      18.85638905        3        1
Se     119.81683179     -58.80577957      20.53566545        4        1
Se     119.81683179     -58.80577957      17.17711265        5        1
W      116.04336470     -58.87912692      18.85638905        3        1
Se     116.98400848     -57.20965866      20.53566545        4        1
Se     116.98400848     -57.20965866      17.17711265        5        1
W      113.21054139     -57.28300601      18.85638905        3        1
Se     114.15118516     -55.61353775      20.53566545        4        1
Se     114.15118516     -55.61353775      17.17711265        5        1
W      110.37771807     -55.68688510      18.85638905        3        1
Se     111.31836185     -54.01741684      20.53566545        4        1
Se     111.31836185     -54.01741684      17.17711265        5        1
W      107.54489476     -54.09076419      18.85638905        3        1
Se     108.48553853     -52.42129593      20.53566545        4        1
Se     108.48553853     -52.42129593      17.17711265        5        1
W      104.71207144     -52.49464328      18.85638905        3        1
Se     105.65271522     -50.82517502      20.53566545        4        1
Se     105.65271522     -50.82517502      17.17711265        5        1
W      101.87924813     -50.89852237      18.85638905        3        1
Se     102.81989190     -49.22905411      20.53566545        4        1
Se     102.81989190     -49.22905411      17.17711265        5        1
W       99.04642482     -49.30240146      18.85638905        3        1
Se      99.98706859     -47.63293320      20.53566545        4        1
Se      99.98706859     -47.63293320      17.17711265        5        1
W       96.21360150     -47.70628055      18.85638905        3        1
Se      97.15424527     -46.03681229      20.53566545        4        1
Se      97.15424527     -46.03681229      17.17711265        5        1
W       93.38077819     -46.11015964      18.85638905        3        1
Se      94.32142196     -44.44069138      20.53566545        4        1
Se      94.32142196     -44.44069138      17.17711265        5        1
W       90.54795487     -44.51403873      18.85638905        3        1
Se      91.48859865     -42.84457047      20.53566545        4        1
Se      91.48859865     -42.84457047      17.17711265        5        1
W       87.71513156     -42.91791782      18.85638905        3        1
Se      88.65577533     -41.24844956      20.53566545        4        1
Se      88.65577533     -41.24844956      17.17711265        5        1
W       84.88230824     -41.32179691      18.85638905        3        1
Se      85.82295202     -39.65232865      20.53566545        4        1
Se      85.82295202     -39.65232865      17.17711265        5        1
W       82.04948493     -39.72567600      18.85638905        3        1
Se      82.99012870     -38.05620774      20.53566545        4        1
Se      82.99012870     -38.05620774      17.17711265        5        1
W       79.21666161     -38.12955509      18.85638905        3        1
Se      80.15730539     -36.46008683      20.53566545        4        1
Se      80.15730539     -36.46008683      17.17711265        5        1
W       76.38383830     -36.53343417      18.85638905        3        1
Se      77.32448207     -34.86396592      20.53566545        4        1
Se      77.32448207     -34.86396592      17.17711265        5        1
W       73.55101498     -34.93731326      18.85638905        3        1
Se      74.49165876     -33.26784501      20.53566545        4        1
Se      74.49165876     -33.26784501      17.17711265        5        1
W       70.71819167     -33.34119235      18.85638905        3        1
Se      71.65883544     -31.67172410      20.53566545        4        1
Se      71.65883544     -31.67172410      17.17711265        5        1
W       67.88536835     -31.74507144      18.85638905        3        1
Se      68.82601213     -30.07560319      20.53566545        4        1
Se      68.82601213     -30.07560319      17.17711265        5        1
W       65.05254504     -30.14895053      18.85638905        3        1
Se      65.99318881     -28.47948227      20.53566545        4        1
Se      65.99318881     -28.47948227      17.17711265        5        1
W       62.21972172     -28.55282962      18.85638905        3        1
Se      63.16036550     -26.88336136      20.53566545        4        1
Se      63.16036550     -26.88336136      17.17711265        5        1
W       59.38689841     -26.95670871      18.85638905        3        1
Se      60.32754218     -25.28724045      20.53566545        4        1
Se      60.32754218     -25.28724045      17.17711265        5        1
W       56.55407509     -25.36058780      18.85638905        3        1
Se      57.49471887     -23.69111954      20.53566545        4        1
Se      57.49471887     -23.69111954      17.17711265        5        1
W       53.72125178     -23.76446689      18.85638905        3        1
Se      54.66189555     -22.09499863      20.53566545        4        1
Se      54.66189555     -22.09499863      17.17711265        5        1
W       50.88842846     -22.16834598      18.85638905        3        1
Se      51.82907224     -20.49887772      20.53566545        4        1
Se      51.82907224     -20.49887772      17.17711265        5        1
W       48.05560515     -20.57222507      18.85638905        3        1
Se      48.99624892     -18.90275681      20.53566545        4        1
Se      48.99624892     -18.90275681      17.17711265        5        1
W       45.22278183     -18.97610416      18.85638905        3        1
Se      46.16342561     -17.30663590      20.53566545        4        1
Se      46.16342561     -17.30663590      17.17711265        5        1
W       42.38995852     -17.37998325      18.85638905        3        1
Se      43.33060229     -15.71051499      20.53566545        4        1
Se      43.33060229     -15.71051499      17.17711265        5        1
W       39.55713520     -15.78386234      18.85638905        3        1
Se      40.49777898     -14.11439408      20.53566545        4        1
Se      40.49777898     -14.11439408      17.17711265        5        1
W       36.72431189     -14.18774143      18.85638905        3        1
Se      37.66495566     -12.51827317      20.53566545        4        1
Se      37.66495566     -12.51827317      17.17711265        5        1
W       33.89148857     -12.59162052      18.85638905        3        1
Se      34.83213235     -10.92215226      20.53566545        4        1
Se      34.83213235     -10.92215226      17.17711265        5        1
W       31.05866526     -10.99549961      18.85638905        3        1
Se      31.99930903      -9.32603135      20.53566545        4        1
Se      31.99930903      -9.32603135      17.17711265        5        1
W       28.22584194      -9.39937870      18.85638905        3        1
Se      29.16648572      -7.72991044      20.53566545        4        1
Se      29.16648572      -7.72991044      17.17711265        5        1
W       25.39301863      -7.80325778      18.85638905        3        1
Se      26.33366240      -6.13378953      20.53566545        4        1
Se      26.33366240      -6.13378953      17.17711265        5        1
W       22.56019531      -6.20713687      18.85638905        3        1
Se      23.50083909      -4.53766862      20.53566545        4        1
Se      23.50083909      -4.53766862      17.17711265        5        1
W       19.72737200      -4.61101596      18.85638905        3        1
Se      20.66801577      -2.94154771      20.53566545        4        1
Se      20.66801577      -2.94154771      17.17711265        5        1
W       16.89454868      -3.01489505      18.85638905        3        1
Se      17.83519246      -1.34542680      20.53566545        4        1
Se      17.83519246      -1.34542680      17.17711265        5        1
W      215.15805032    -111.49200138      18.85638905        3        1
Se     216.09869410    -109.82253312      20.53566545        4        1
Se     216.09869410    -109.82253312      17.17711265        5        1
W      212.32522701    -109.89588047      18.85638905        3        1
Se     213.26587078    -108.22641221      20.53566545        4        1
Se     213.26587078    -108.22641221      17.17711265        5        1
W      209.49240369    -108.29975956      18.85638905        3        1
Se     210.43304747    -106.63029130      20.53566545        4        1
Se     210.43304747    -106.63029130      17.17711265        5        1
W      206.65958038    -106.70363865      18.85638905        3        1
Se     207.60022415    -105.03417039      20.53566545        4        1
Se     207.60022415    -105.03417039      17.17711265        5        1
W      203.82675706    -105.10751774      18.85638905        3        1
Se     204.76740084    -103.43804948      20.53566545        4        1
Se     204.76740084    -103.43804948      17.17711265        5        1
W      200.99393375    -103.51139683      18.85638905        3        1
Se     201.93457752    -101.84192857      20.53566545        4        1
Se     201.93457752    -101.84192857      17.17711265        5        1
W      198.16111043    -101.91527592      18.85638905        3        1
Se     199.10175421    -100.24580766      20.53566545        4        1
Se     199.10175421    -100.24580766      17.17711265        5        1
W      195.32828712    -100.31915501      18.85638905        3        1
Se     196.26893089     -98.64968675      20.53566545        4        1
Se     196.26893089     -98.64968675      17.17711265        5        1
W      192.49546380     -98.72303410      18.85638905        3        1
Se     193.43610758     -97.05356584      20.53566545        4        1
Se     193.43610758     -97.05356584      17.17711265        5        1
W      189.66264049     -97.12691319      18.85638905        3        1
Se     190.60328426     -95.45744493      20.53566545        4        1
Se     190.60328426     -95.45744493      17.17711265        5        1
W      186.82981717     -95.53079228      18.85638905        3        1
Se     187.77046095     -93.86132402      20.53566545        4        1
Se     187.77046095     -93.86132402      17.17711265        5        1
W      183.99699386     -93.93467136      18.85638905        3        1
Se     184.93763763     -92.26520311      20.53566545        4        1
Se     184.93763763     -92.26520311      17.17711265        5        1
W      181.16417054     -92.33855045      18.85638905        3        1
Se     182.10481432     -90.66908220      20.53566545        4        1
Se     182.10481432     -90.66908220      17.17711265        5        1
W      178.33134723     -90.74242954      18.85638905        3        1
Se     179.27199100     -89.07296129      20.53566545        4        1
Se     179.27199100     -89.07296129      17.17711265        5        1
W      175.49852391     -89.14630863      18.85638905        3        1
Se     176.43916769     -87.47684038      20.53566545        4        1
Se     176.43916769     -87.47684038      17.17711265        5        1
W      172.66570060     -87.55018772      18.85638905        3        1
Se     173.60634437     -85.88071946      20.53566545        4        1
Se     173.60634437     -85.88071946      17.17711265        5        1
W      169.83287728     -85.95406681      18.85638905        3        1
Se     170.77352106     -84.28459855      20.53566545        4        1
Se     170.77352106     -84.28459855      17.17711265        5        1
W      167.00005397     -84.35794590      18.85638905        3        1
Se     167.94069774     -82.68847764      20.53566545        4        1
Se     167.94069774     -82.68847764      17.17711265        5        1
W      164.16723066     -82.76182499      18.85638905        3        1
Se     165.10787443     -81.09235673      20.53566545        4        1
Se     165.10787443     -81.09235673      17.17711265        5        1
W      161.33440734     -81.16570408      18.85638905        3        1
Se     162.27505111     -79.49623582      20.53566545        4        1
Se     162.27505111     -79.49623582      17.17711265        5        1
W      158.50158403     -79.56958317      18.85638905        3        1
Se     159.44222780     -77.90011491      20.53566545        4        1
Se     159.44222780     -77.90011491      17.17711265        5        1
W      155.66876071     -77.97346226      18.85638905        3        1
Se     156.60940449     -76.30399400      20.53566545        4        1
Se     156.60940449     -76.30399400      17.17711265        5        1
W      152.83593740     -76.37734135      18.85638905        3        1
Se     153.77658117     -74.70787309      20.53566545        4        1
Se     153.77658117     -74.70787309      17.17711265        5        1
W      150.00311408     -74.78122044      18.85638905        3        1
Se     150.94375786     -73.11175218      20.53566545        4        1
Se     150.94375786     -73.11175218      17.17711265        5        1
W      147.17029077     -73.18509953      18.85638905        3        1
Se     148.11093454     -71.51563127      20.53566545        4        1
Se     148.11093454     -71.51563127      17.17711265        5        1
W      144.33746745     -71.58897862      18.85638905        3        1
Se     145.27811123     -69.91951036      20.53566545        4        1
Se     145.27811123     -69.91951036      17.17711265        5        1
W      141.50464414     -69.99285771      18.85638905        3        1
Se     142.44528791     -68.32338945      20.53566545        4        1
Se     142.44528791     -68.32338945      17.17711265        5        1
W      138.67182082     -68.39673680      18.85638905        3        1
Se     139.61246460     -66.72726854      20.53566545        4        1
Se     139.61246460     -66.72726854      17.17711265        5        1
W      135.83899751     -66.80061589      18.85638905        3        1
Se     136.77964128     -65.13114763      20.53566545        4        1
Se     136.77964128     -65.13114763      17.17711265        5        1
W      133.00617419     -65.20449497      18.85638905        3        1
Se     133.94681797     -63.53502672      20.53566545        4        1
Se     133.94681797     -63.53502672      17.17711265        5        1
W      130.17335088     -63.60837406      18.85638905        3        1
Se     131.11399465     -61.93890581      20.53566545        4        1
Se     131.11399465     -61.93890581      17.17711265        5        1
W      127.34052756     -62.01225315      18.85638905        3        1
Se     128.28117134     -60.34278490      20.53566545        4        1
Se     128.28117134     -60.34278490      17.17711265        5        1
W      124.50770425     -60.41613224      18.85638905        3        1
Se     125.44834802     -58.74666399      20.53566545        4        1
Se     125.44834802     -58.74666399      17.17711265        5        1
W      121.67488093     -58.82001133      18.85638905        3        1
Se     122.61552471     -57.15054308      20.53566545        4        1
Se     122.61552471     -57.15054308      17.17711265        5        1
W      118.84205762     -57.22389042      18.85638905        3        1
Se     119.78270139     -55.55442216      20.53566545        4        1
Se     119.78270139     -55.55442216      17.17711265        5        1
W      116.00923430     -55.62776951      18.85638905        3        1
Se     116.94987808     -53.95830125      20.53566545        4        1
Se     116.94987808     -53.95830125      17.17711265        5        1
W      113.17641099     -54.03164860      18.85638905        3        1
Se     114.11705476     -52.36218034      20.53566545        4        1
Se     114.11705476     -52.36218034      17.17711265        5        1
W      110.34358767     -52.43552769      18.85638905        3        1
Se     111.28423145     -50.76605943      20.53566545        4        1
Se     111.28423145     -50.76605943      17.17711265        5        1
W      107.51076436     -50.83940678      18.85638905        3        1
Se     108.45140813     -49.16993852      20.53566545        4        1
Se     108.45140813     -49.16993852      17.17711265        5        1
W      104.67794104     -49.24328587      18.85638905        3        1
Se     105.61858482     -47.57381761      20.53566545        4        1
Se     105.61858482     -47.57381761      17.17711265        5        1
W      101.84511773     -47.64716496      18.85638905        3        1
Se     102.78576150     -45.97769670      20.53566545        4        1
Se     102.78576150     -45.97769670      17.17711265        5        1
W       99.01229441     -46.05104405      18.85638905        3        1
Se      99.95293819     -44.38157579      20.53566545        4        1
Se      99.95293819     -44.38157579      17.17711265        5        1
W       96.17947110     -44.45492314      18.85638905        3        1
Se      97.12011487     -42.78545488      20.53566545        4        1
Se      97.12011487     -42.78545488      17.17711265        5        1
W       93.34664778     -42.85880223      18.85638905        3        1
Se      94.28729156     -41.18933397      20.53566545        4        1
Se      94.28729156     -41.18933397      17.17711265        5        1
W       90.51382447     -41.26268132      18.85638905        3        1
Se      91.45446824     -39.59321306      20.53566545        4        1
Se      91.45446824     -39.59321306      17.17711265        5        1
W       87.68100115     -39.66656041      18.85638905        3        1
Se      88.62164493     -37.99709215      20.53566545        4        1
Se      88.62164493     -37.99709215      17.17711265        5        1
W       84.84817784     -38.07043950      18.85638905        3        1
Se      85.78882161     -36.40097124      20.53566545        4        1
Se      85.78882161     -36.40097124      17.17711265        5        1
W       82.01535452     -36.47431859      18.85638905        3        1
Se      82.95599830     -34.80485033      20.53566545        4        1
Se      82.95599830     -34.80485033      17.17711265        5        1
W       79.18253121     -34.87819767      18.85638905        3        1
Se      80.12317498     -33.20872942      20.53566545        4        1
Se      80.12317498     -33.20872942      17.17711265        5        1
W       76.34970790     -33.28207676      18.85638905        3        1
Se      77.29035167     -31.61260851      20.53566545        4        1
Se      77.29035167     -31.61260851      17.17711265        5        1
W       73.51688458     -31.68595585      18.85638905        3        1
Se      74.45752835     -30.01648760      20.53566545        4        1
Se      74.45752835     -30.01648760      17.17711265        5        1
W       70.68406127     -30.08983494      18.85638905        3        1
Se      71.62470504     -28.42036669      20.53566545        4        1
Se      71.62470504     -28.42036669      17.17711265        5        1
W       67.85123795     -28.49371403      18.85638905        3        1
Se      68.79188173     -26.82424577      20.53566545        4        1
Se      68.79188173     -26.82424577      17.17711265        5        1
W       65.01841464     -26.89759312      18.85638905        3        1
Se      65.95905841     -25.22812486      20.53566545        4        1
Se      65.95905841     -25.22812486      17.17711265        5        1
W       62.18559132     -25.30147221      18.85638905        3        1
Se      63.12623510     -23.63200395      20.53566545        4        1
Se      63.12623510     -23.63200395      17.17711265        5        1
W       59.35276801     -23.70535130      18.85638905        3        1
Se      60.29341178     -22.03588304      20.53566545        4        1
Se      60.29341178     -22.03588304      17.17711265        5        1
W       56.51994469     -22.10923039      18.85638905        3        1
Se      57.46058847     -20.43976213      20.53566545        4        1
Se      57.46058847     -20.43976213      17.17711265        5        1
W       53.68712138     -20.51310948      18.85638905        3        1
Se      54.62776515     -18.84364122      20.53566545        4        1
Se      54.62776515     -18.84364122      17.17711265        5        1
W       50.85429806     -18.91698857      18.85638905        3        1
Se      51.79494184     -17.24752031      20.53566545        4        1
Se      51.79494184     -17.24752031      17.17711265        5        1
W       48.02147475     -17.32086766      18.85638905        3        1
Se      48.96211852     -15.65139940      20.53566545        4        1
Se      48.96211852     -15.65139940      17.17711265        5        1
W       45.18865143     -15.72474675      18.85638905        3        1
Se      46.12929521     -14.05527849      20.53566545        4        1
Se      46.12929521     -14.05527849      17.17711265        5        1
W       42.35582812     -14.12862584      18.85638905        3        1
Se      43.29647189     -12.45915758      20.53566545        4        1
Se      43.29647189     -12.45915758      17.17711265        5        1
W       39.52300480     -12.53250493      18.85638905        3        1
Se      40.46364858     -10.86303667      20.53566545        4        1
Se      40.46364858     -10.86303667      17.17711265        5        1
W       36.69018149     -10.93638402      18.85638905        3        1
Se      37.63082526      -9.26691576      20.53566545        4        1
Se      37.63082526      -9.26691576      17.17711265        5        1
W       33.85735817      -9.34026311      18.85638905        3        1
Se      34.79800195      -7.67079485      20.53566545        4        1
Se      34.79800195      -7.67079485      17.17711265        5        1
W       31.02453486      -7.74414220      18.85638905        3        1
Se      31.96517863      -6.07467394      20.53566545        4        1
Se      31.96517863      -6.07467394      17.17711265        5        1
W       28.19171154      -6.14802129      18.85638905        3        1
Se      29.13235532      -4.47855303      20.53566545        4        1
Se      29.13235532      -4.47855303      17.17711265        5        1
W       25.35888823      -4.55190037      18.85638905        3        1
Se      26.29953200      -2.88243212      20.53566545        4        1
Se      26.29953200      -2.88243212      17.17711265        5        1
W       22.52606491      -2.95577946      18.85638905        3        1
Se      23.46670869      -1.28631121      20.53566545        4        1
Se      23.46670869      -1.28631121      17.17711265        5        1
W      212.29109661    -106.64452306      18.85638905        3        1
Se     213.23174038    -104.97505480      20.53566545        4        1
Se     213.23174038    -104.97505480      17.17711265        5        1
W      209.45827329    -105.04840215      18.85638905        3        1
Se     210.39891707    -103.37893389      20.53566545        4        1
Se     210.39891707    -103.37893389      17.17711265        5        1
W      206.62544998    -103.45228124      18.85638905        3        1
Se     207.56609375    -101.78281298      20.53566545        4        1
Se     207.56609375    -101.78281298      17.17711265        5        1
W      203.79262666    -101.85616033      18.85638905        3        1
Se     204.73327044    -100.18669207      20.53566545        4        1
Se     204.73327044    -100.18669207      17.17711265        5        1
W      200.95980335    -100.26003942      18.85638905        3        1
Se     201.90044712     -98.59057116      20.53566545        4        1
Se     201.90044712     -98.59057116      17.17711265        5        1
W      198.12698003     -98.66391851      18.85638905        3        1
Se     199.06762381     -96.99445025      20.53566545        4        1
Se     199.06762381     -96.99445025      17.17711265        5        1
W      195.29415672     -97.06779760      18.85638905        3        1
Se     196.23480049     -95.39832934      20.53566545        4        1
Se     196.23480049     -95.39832934      17.17711265        5        1
W      192.46133340     -95.47167669      18.85638905        3        1
Se     193.40197718     -93.80220843      20.53566545        4        1
Se     193.40197718     -93.80220843      17.17711265        5        1
W      189.62851009     -93.87555578      18.85638905        3        1
Se     190.56915386     -92.20608752      20.53566545        4        1
Se     190.56915386     -92.20608752      17.17711265        5        1
W      186.79568677     -92.27943486      18.85638905        3        1
Se     187.73633055     -90.60996661      20.53566545        4        1
Se     187.73633055     -90.60996661      17.17711265        5        1
W      183.96286346     -90.68331395      18.85638905        3        1
Se     184.90350723     -89.01384570      20.53566545        4        1
Se     184.90350723     -89.01384570      17.17711265        5        1
W      181.13004014     -89.08719304      18.85638905        3        1
Se     182.07068392     -87.41772479      20.53566545        4        1
Se     182.07068392     -87.41772479      17.17711265        5        1
W      178.29721683     -87.49107213      18.85638905        3        1
Se     179.23786060     -85.82160388      20.53566545        4        1
Se     179.23786060     -85.82160388      17.17711265        5        1
W      175.46439351     -85.89495122      18.85638905        3        1
Se     176.40503729     -84.22548296      20.53566545        4        1
Se     176.40503729     -84.22548296      17.17711265        5        1
W      172.63157020     -84.29883031      18.85638905        3        1
Se     173.57221397     -82.62936205      20.53566545        4        1
Se     173.57221397     -82.62936205      17.17711265        5        1
W      169.79874688     -82.70270940      18.85638905        3        1
Se     170.73939066     -81.03324114      20.53566545        4        1
Se     170.73939066     -81.03324114      17.17711265        5        1
W      166.96592357     -81.10658849      18.85638905        3        1
Se     167.90656734     -79.43712023      20.53566545        4        1
Se     167.90656734     -79.43712023      17.17711265        5        1
W      164.13310025     -79.51046758      18.85638905        3        1
Se     165.07374403     -77.84099932      20.53566545        4        1
Se     165.07374403     -77.84099932      17.17711265        5        1
W      161.30027694     -77.91434667      18.85638905        3        1
Se     162.24092071     -76.24487841      20.53566545        4        1
Se     162.24092071     -76.24487841      17.17711265        5        1
W      158.46745362     -76.31822576      18.85638905        3        1
Se     159.40809740     -74.64875750      20.53566545        4        1
Se     159.40809740     -74.64875750      17.17711265        5        1
W      155.63463031     -74.72210485      18.85638905        3        1
Se     156.57527408     -73.05263659      20.53566545        4        1
Se     156.57527408     -73.05263659      17.17711265        5        1
W      152.80180699     -73.12598394      18.85638905        3        1
Se     153.74245077     -71.45651568      20.53566545        4        1
Se     153.74245077     -71.45651568      17.17711265        5        1
W      149.96898368     -71.52986303      18.85638905        3        1
Se     150.90962745     -69.86039477      20.53566545        4        1
Se     150.90962745     -69.86039477      17.17711265        5        1
W      147.13616036     -69.93374212      18.85638905        3        1
Se     148.07680414     -68.26427386      20.53566545        4        1
Se     148.07680414     -68.26427386      17.17711265        5        1
W      144.30333705     -68.33762121      18.85638905        3        1
Se     145.24398082     -66.66815295      20.53566545        4        1
Se     145.24398082     -66.66815295      17.17711265        5        1
W      141.47051374     -66.74150030      18.85638905        3        1
Se     142.41115751     -65.07203204      20.53566545        4        1
Se     142.41115751     -65.07203204      17.17711265        5        1
W      138.63769042     -65.14537939      18.85638905        3        1
Se     139.57833419     -63.47591113      20.53566545        4        1
Se     139.57833419     -63.47591113      17.17711265        5        1
W      135.80486711     -63.54925848      18.85638905        3        1
Se     136.74551088     -61.87979022      20.53566545        4        1
Se     136.74551088     -61.87979022      17.17711265        5        1
W      132.97204379     -61.95313756      18.85638905        3        1
Se     133.91268757     -60.28366931      20.53566545        4        1
Se     133.91268757     -60.28366931      17.17711265        5        1
W      130.13922048     -60.35701665      18.85638905        3        1
Se     131.07986425     -58.68754840      20.53566545        4        1
Se     131.07986425     -58.68754840      17.17711265        5        1
W      127.30639716     -58.76089574      18.85638905        3        1
Se     128.24704094     -57.09142749      20.53566545        4        1
Se     128.24704094     -57.09142749      17.17711265        5        1
W      124.47357385     -57.16477483      18.85638905        3        1
Se     125.41421762     -55.49530658      20.53566545        4        1
Se     125.41421762     -55.49530658      17.17711265        5        1
W      121.64075053     -55.56865392      18.85638905        3        1
Se     122.58139431     -53.89918566      20.53566545        4        1
Se     122.58139431     -53.89918566      17.17711265        5        1
W      118.80792722     -53.97253301      18.85638905        3        1
Se     119.74857099     -52.30306475      20.53566545        4        1
Se     119.74857099     -52.30306475      17.17711265        5        1
W      115.97510390     -52.37641210      18.85638905        3        1
Se     116.91574768     -50.70694384      20.53566545        4        1
Se     116.91574768     -50.70694384      17.17711265        5        1
W      113.14228059     -50.78029119      18.85638905        3        1
Se     114.08292436     -49.11082293      20.53566545        4        1
Se     114.08292436     -49.11082293      17.17711265        5        1
W      110.30945727     -49.18417028      18.85638905        3        1
Se     111.25010105     -47.51470202      20.53566545        4        1
Se     111.25010105     -47.51470202      17.17711265        5        1
W      107.47663396     -47.58804937      18.85638905        3        1
Se     108.41727773     -45.91858111      20.53566545        4        1
Se     108.41727773     -45.91858111      17.17711265        5        1
W      104.64381064     -45.99192846      18.85638905        3        1
Se     105.58445442     -44.32246020      20.53566545        4        1
Se     105.58445442     -44.32246020      17.17711265        5        1
W      101.81098733     -44.39580755      18.85638905        3        1
Se     102.75163110     -42.72633929      20.53566545        4        1
Se     102.75163110     -42.72633929      17.17711265        5        1
W       98.97816401     -42.79968664      18.85638905        3        1
Se      99.91880779     -41.13021838      20.53566545        4        1
Se      99.91880779     -41.13021838      17.17711265        5        1
W       96.14534070     -41.20356573      18.85638905        3        1
Se      97.08598447     -39.53409747      20.53566545        4        1
Se      97.08598447     -39.53409747      17.17711265        5        1
W       93.31251738     -39.60744482      18.85638905        3        1
Se      94.25316116     -37.93797656      20.53566545        4        1
Se      94.25316116     -37.93797656      17.17711265        5        1
W       90.47969407     -38.01132391      18.85638905        3        1
Se      91.42033784     -36.34185565      20.53566545        4        1
Se      91.42033784     -36.34185565      17.17711265        5        1
W       87.64687075     -36.41520300      18.85638905        3        1
Se      88.58751453     -34.74573474      20.53566545        4        1
Se      88.58751453     -34.74573474      17.17711265        5        1
W       84.81404744     -34.81908209      18.85638905        3        1
Se      85.75469121     -33.14961383      20.53566545        4        1
Se      85.75469121     -33.14961383      17.17711265        5        1
W       81.98122412     -33.22296117      18.85638905        3        1
Se      82.92186790     -31.55349292      20.53566545        4        1
Se      82.92186790     -31.55349292      17.17711265        5        1
W       79.14840081     -31.62684026      18.85638905        3        1
Se      80.08904458     -29.95737201      20.53566545        4        1
Se      80.08904458     -29.95737201      17.17711265        5        1
W       76.31557749     -30.03071935      18.85638905        3        1
Se      77.25622127     -28.36125110      20.53566545        4        1
Se      77.25622127     -28.36125110      17.17711265        5        1
W       73.48275418     -28.43459844      18.85638905        3        1
Se      74.42339795     -26.76513019      20.53566545        4        1
Se      74.42339795     -26.76513019      17.17711265        5        1
W       70.64993086     -26.83847753      18.85638905        3        1
Se      71.59057464     -25.16900928      20.53566545        4        1
Se      71.59057464     -25.16900928      17.17711265        5        1
W       67.81710755     -25.24235662      18.85638905        3        1
Se      68.75775132     -23.57288836      20.53566545        4        1
Se      68.75775132     -23.57288836      17.17711265        5        1
W       64.98428423     -23.64623571      18.85638905        3        1
Se      65.92492801     -21.97676745      20.53566545        4        1
Se      65.92492801     -21.97676745      17.17711265        5        1
W       62.15146092     -22.05011480      18.85638905        3        1
Se      63.09210469     -20.38064654      20.53566545        4        1
Se      63.09210469     -20.38064654      17.17711265        5        1
W       59.31863760     -20.45399389      18.85638905        3        1
Se      60.25928138     -18.78452563      20.53566545        4        1
Se      60.25928138     -18.78452563      17.17711265        5        1
W       56.48581429     -18.85787298      18.85638905        3        1
Se      57.42645806     -17.18840472      20.53566545        4        1
Se      57.42645806     -17.18840472      17.17711265        5        1
W       53.65299098     -17.26175207      18.85638905        3        1
Se      54.59363475     -15.59228381      20.53566545        4        1
Se      54.59363475     -15.59228381      17.17711265        5        1
W       50.82016766     -15.66563116      18.85638905        3        1
Se      51.76081143     -13.99616290      20.53566545        4        1
Se      51.76081143     -13.99616290      17.17711265        5        1
W       47.98734435     -14.06951025      18.85638905        3        1
Se      48.92798812     -12.40004199      20.53566545        4        1
Se      48.92798812     -12.40004199      17.17711265        5        1
W       45.15452103     -12.47338934      18.85638905        3        1
Se      46.09516480     -10.80392108      20.53566545        4        1
Se      46.09516480     -10.80392108      17.17711265        5        1
W       42.32169772     -10.87726843      18.85638905        3        1
Se      43.26234149      -9.20780017      20.53566545        4        1
Se      43.26234149      -9.20780017      17.17711265        5        1
W       39.48887440      -9.28114752      18.85638905        3        1
Se      40.42951818      -7.61167926      20.53566545        4        1
Se      40.42951818      -7.61167926      17.17711265        5        1
W       36.65605109      -7.68502661      18.85638905        3        1
Se      37.59669486      -6.01555835      20.53566545        4        1
Se      37.59669486      -6.01555835      17.17711265        5        1
W       33.82322777      -6.08890570      18.85638905        3        1
Se      34.76387155      -4.41943744      20.53566545        4        1
Se      34.76387155      -4.41943744      17.17711265        5        1
W       30.99040446      -4.49278479      18.85638905        3        1
Se      31.93104823      -2.82331653      20.53566545        4        1
Se      31.93104823      -2.82331653      17.17711265        5        1
W       28.15758114      -2.89666387      18.85638905        3        1
Se      29.09822492      -1.22719562      20.53566545        4        1
Se      29.09822492      -1.22719562      17.17711265        5        1
W      209.42414289    -101.79704474      18.85638905        3        1
Se     210.36478666    -100.12757648      20.53566545        4        1
Se     210.36478666    -100.12757648      17.17711265        5        1
W      206.59131958    -100.20092383      18.85638905        3        1
Se     207.53196335     -98.53145557      20.53566545        4        1
Se     207.53196335     -98.53145557      17.17711265        5        1
W      203.75849626     -98.60480292      18.85638905        3        1
Se     204.69914003     -96.93533466      20.53566545        4        1
Se     204.69914003     -96.93533466      17.17711265        5        1
W      200.92567295     -97.00868201      18.85638905        3        1
Se     201.86631672     -95.33921375      20.53566545        4        1
Se     201.86631672     -95.33921375      17.17711265        5        1
W      198.09284963     -95.41256110      18.85638905        3        1
Se     199.03349340     -93.74309284      20.53566545        4        1
Se     199.03349340     -93.74309284      17.17711265        5        1
W      195.26002632     -93.81644019      18.85638905        3        1
Se     196.20067009     -92.14697193      20.53566545        4        1
Se     196.20067009     -92.14697193      17.17711265        5        1
W      192.42720300     -92.22031928      18.85638905        3        1
Se     193.36784678     -90.55085102      20.53566545        4        1
Se     193.36784678     -90.55085102      17.17711265        5        1
W      189.59437969     -90.62419836      18.85638905        3        1
Se     190.53502346     -88.95473011      20.53566545        4        1
Se     190.53502346     -88.95473011      17.17711265        5        1
W      186.76155637     -89.02807745      18.85638905        3        1
Se     187.70220015     -87.35860920      20.53566545        4        1
Se     187.70220015     -87.35860920      17.17711265        5        1
W      183.92873306     -87.43195654      18.85638905        3        1
Se     184.86937683     -85.76248829      20.53566545        4        1
Se     184.86937683     -85.76248829      17.17711265        5        1
W      181.09590974     -85.83583563      18.85638905        3        1
Se     182.03655352     -84.16636738      20.53566545        4        1
Se     182.03655352     -84.16636738      17.17711265        5        1
W      178.26308643     -84.23971472      18.85638905        3        1
Se     179.20373020     -82.57024647      20.53566545        4        1
Se     179.20373020     -82.57024647      17.17711265        5        1
W      175.43026311     -82.64359381      18.85638905        3        1
Se     176.37090689     -80.97412555      20.53566545        4        1
Se     176.37090689     -80.97412555      17.17711265        5        1
W      172.59743980     -81.04747290      18.85638905        3        1
Se     173.53808357     -79.37800464      20.53566545        4        1
Se     173.53808357     -79.37800464      17.17711265        5        1
W      169.76461648     -79.45135199      18.85638905        3        1
Se     170.70526026     -77.78188373      20.53566545        4        1
Se     170.70526026     -77.78188373      17.17711265        5        1
W      166.93179317     -77.85523108      18.85638905        3        1
Se     167.87243694     -76.18576282      20.53566545        4        1
Se     167.87243694     -76.18576282      17.17711265        5        1
W      164.09896985     -76.25911017      18.85638905        3        1
Se     165.03961363     -74.58964191      20.53566545        4        1
Se     165.03961363     -74.58964191      17.17711265        5        1
W      161.26614654     -74.66298926      18.85638905        3        1
Se     162.20679031     -72.99352100      20.53566545        4        1
Se     162.20679031     -72.99352100      17.17711265        5        1
W      158.43332322     -73.06686835      18.85638905        3        1
Se     159.37396700     -71.39740009      20.53566545        4        1
Se     159.37396700     -71.39740009      17.17711265        5        1
W      155.60049991     -71.47074744      18.85638905        3        1
Se     156.54114368     -69.80127918      20.53566545        4        1
Se     156.54114368     -69.80127918      17.17711265        5        1
W      152.76767659     -69.87462653      18.85638905        3        1
Se     153.70832037     -68.20515827      20.53566545        4        1
Se     153.70832037     -68.20515827      17.17711265        5        1
W      149.93485328     -68.27850562      18.85638905        3        1
Se     150.87549705     -66.60903736      20.53566545        4        1
Se     150.87549705     -66.60903736      17.17711265        5        1
W      147.10202996     -66.68238471      18.85638905        3        1
Se     148.04267374     -65.01291645      20.53566545        4        1
Se     148.04267374     -65.01291645      17.17711265        5        1
W      144.26920665     -65.08626380      18.85638905        3        1
Se     145.20985042     -63.41679554      20.53566545        4        1
Se     145.20985042     -63.41679554      17.17711265        5        1
W      141.43638333     -63.49014289      18.85638905        3        1
Se     142.37702711     -61.82067463      20.53566545        4        1
Se     142.37702711     -61.82067463      17.17711265        5        1
W      138.60356002     -61.89402198      18.85638905        3        1
Se     139.54420379     -60.22455372      20.53566545        4        1
Se     139.54420379     -60.22455372      17.17711265        5        1
W      135.77073670     -60.29790106      18.85638905        3        1
Se     136.71138048     -58.62843281      20.53566545        4        1
Se     136.71138048     -58.62843281      17.17711265        5        1
W      132.93791339     -58.70178015      18.85638905        3        1
Se     133.87855716     -57.03231190      20.53566545        4        1
Se     133.87855716     -57.03231190      17.17711265        5        1
W      130.10509007     -57.10565924      18.85638905        3        1
Se     131.04573385     -55.43619099      20.53566545        4        1
Se     131.04573385     -55.43619099      17.17711265        5        1
W      127.27226676     -55.50953833      18.85638905        3        1
Se     128.21291053     -53.84007008      20.53566545        4        1
Se     128.21291053     -53.84007008      17.17711265        5        1
W      124.43944344     -53.91341742      18.85638905        3        1
Se     125.38008722     -52.24394916      20.53566545        4        1
Se     125.38008722     -52.24394916      17.17711265        5        1
W      121.60662013     -52.31729651      18.85638905        3        1
Se     122.54726390     -50.64782825      20.53566545        4        1
Se     122.54726390     -50.64782825      17.17711265        5        1
W      118.77379681     -50.72117560      18.85638905        3        1
Se     119.71444059     -49.05170734      20.53566545        4        1
Se     119.71444059     -49.05170734      17.17711265        5        1
W      115.94097350     -49.12505469      18.85638905        3        1
Se     116.88161727     -47.45558643      20.53566545        4        1
Se     116.88161727     -47.45558643      17.17711265        5        1
W      113.10815019     -47.52893378      18.85638905        3        1
Se     114.04879396     -45.85946552      20.53566545        4        1
Se     114.04879396     -45.85946552      17.17711265        5        1
W      110.27532687     -45.93281287      18.85638905        3        1
Se     111.21597064     -44.26334461      20.53566545        4        1
Se     111.21597064     -44.26334461      17.17711265        5        1
W      107.44250356     -44.33669196      18.85638905        3        1
Se     108.38314733     -42.66722370      20.53566545        4        1
Se     108.38314733     -42.66722370      17.17711265        5        1
W      104.60968024     -42.74057105      18.85638905        3        1
Se     105.55032402     -41.07110279      20.53566545        4        1
Se     105.55032402     -41.07110279      17.17711265        5        1
W      101.77685693     -41.14445014      18.85638905        3        1
Se     102.71750070     -39.47498188      20.53566545        4        1
Se     102.71750070     -39.47498188      17.17711265        5        1
W       98.94403361     -39.54832923      18.85638905        3        1
Se      99.88467739     -37.87886097      20.53566545        4        1
Se      99.88467739     -37.87886097      17.17711265        5        1
W       96.11121030     -37.95220832      18.85638905        3        1
Se      97.05185407     -36.28274006      20.53566545        4        1
Se      97.05185407     -36.28274006      17.17711265        5        1
W       93.27838698     -36.35608741      18.85638905        3        1
Se      94.21903076     -34.68661915      20.53566545        4        1
Se      94.21903076     -34.68661915      17.17711265        5        1
W       90.44556367     -34.75996650      18.85638905        3        1
Se      91.38620744     -33.09049824      20.53566545        4        1
Se      91.38620744     -33.09049824      17.17711265        5        1
W       87.61274035     -33.16384559      18.85638905        3        1
Se      88.55338413     -31.49437733      20.53566545        4        1
Se      88.55338413     -31.49437733      17.17711265        5        1
W       84.77991704     -31.56772468      18.85638905        3        1
Se      85.72056081     -29.89825642      20.53566545        4        1
Se      85.72056081     -29.89825642      17.17711265        5        1
W       81.94709372     -29.97160376      18.85638905        3        1
Se      82.88773750     -28.30213551      20.53566545        4        1
Se      82.88773750     -28.30213551      17.17711265        5        1
W       79.11427041     -28.37548285      18.85638905        3        1
Se      80.05491418     -26.70601460      20.53566545        4        1
Se      80.05491418     -26.70601460      17.17711265        5        1
W       76.28144709     -26.77936194      18.85638905        3        1
Se      77.22209087     -25.10989369      20.53566545        4        1
Se      77.22209087     -25.10989369      17.17711265        5        1
W       73.44862378     -25.18324103      18.85638905        3        1
Se      74.38926755     -23.51377278      20.53566545        4        1
Se      74.38926755     -23.51377278      17.17711265        5        1
W       70.61580046     -23.58712012      18.85638905        3        1
Se      71.55644424     -21.91765186      20.53566545        4        1
Se      71.55644424     -21.91765186      17.17711265        5        1
W       67.78297715     -21.99099921      18.85638905        3        1
Se      68.72362092     -20.32153095      20.53566545        4        1
Se      68.72362092     -20.32153095      17.17711265        5        1
W       64.95015383     -20.39487830      18.85638905        3        1
Se      65.89079761     -18.72541004      20.53566545        4        1
Se      65.89079761     -18.72541004      17.17711265        5        1
W       62.11733052     -18.79875739      18.85638905        3        1
Se      63.05797429     -17.12928913      20.53566545        4        1
Se      63.05797429     -17.12928913      17.17711265        5        1
W       59.28450720     -17.20263648      18.85638905        3        1
Se      60.22515098     -15.53316822      20.53566545        4        1
Se      60.22515098     -15.53316822      17.17711265        5        1
W       56.45168389     -15.60651557      18.85638905        3        1
Se      57.39232766     -13.93704731      20.53566545        4        1
Se      57.39232766     -13.93704731      17.17711265        5        1
W       53.61886057     -14.01039466      18.85638905        3        1
Se      54.55950435     -12.34092640      20.53566545        4        1
Se      54.55950435     -12.34092640      17.17711265        5        1
W       50.78603726     -12.41427375      18.85638905        3        1
Se      51.72668103     -10.74480549      20.53566545        4        1
Se      51.72668103     -10.74480549      17.17711265        5        1
W       47.95321394     -10.81815284      18.85638905        3        1
Se      48.89385772      -9.14868458      20.53566545        4        1
Se      48.89385772      -9.14868458      17.17711265        5        1
W       45.12039063      -9.22203193      18.85638905        3        1
Se      46.06103440      -7.55256367      20.53566545        4        1
Se      46.06103440      -7.55256367      17.17711265        5        1
W       42.28756731      -7.62591102      18.85638905        3        1
Se      43.22821109      -5.95644276      20.53566545        4        1
Se      43.22821109      -5.95644276      17.17711265        5        1
W       39.45474400      -6.02979011      18.85638905        3        1
Se      40.39538777      -4.36032185      20.53566545        4        1
Se      40.39538777      -4.36032185      17.17711265        5        1
W       36.62192068      -4.43366920      18.85638905        3        1
Se      37.56256446      -2.76420094      20.53566545        4        1
Se      37.56256446      -2.76420094      17.17711265        5        1
W       33.78909737      -2.83754829      18.85638905        3        1
Se      34.72974114      -1.16808003      20.53566545        4        1
Se      34.72974114      -1.16808003      17.17711265        5        1
W      206.55718917     -96.94956642      18.85638905        3        1
Se     207.49783295     -95.28009816      20.53566545        4        1
Se     207.49783295     -95.28009816      17.17711265        5        1
W      203.72436586     -95.35344551      18.85638905        3        1
Se     204.66500963     -93.68397725      20.53566545        4        1
Se     204.66500963     -93.68397725      17.17711265        5        1
W      200.89154254     -93.75732460      18.85638905        3        1
Se     201.83218632     -92.08785634      20.53566545        4        1
Se     201.83218632     -92.08785634      17.17711265        5        1
W      198.05871923     -92.16120369      18.85638905        3        1
Se     198.99936300     -90.49173543      20.53566545        4        1
Se     198.99936300     -90.49173543      17.17711265        5        1
W      195.22589591     -90.56508278      18.85638905        3        1
Se     196.16653969     -88.89561452      20.53566545        4        1
Se     196.16653969     -88.89561452      17.17711265        5        1
W      192.39307260     -88.96896187      18.85638905        3        1
Se     193.33371637     -87.29949361      20.53566545        4        1
Se     193.33371637     -87.29949361      17.17711265        5        1
W      189.56024928     -87.37284095      18.85638905        3        1
Se     190.50089306     -85.70337270      20.53566545        4        1
Se     190.50089306     -85.70337270      17.17711265        5        1
W      186.72742597     -85.77672004      18.85638905        3        1
Se     187.66806974     -84.10725179      20.53566545        4        1
Se     187.66806974     -84.10725179      17.17711265        5        1
W      183.89460265     -84.18059913      18.85638905        3        1
Se     184.83524643     -82.51113088      20.53566545        4        1
Se     184.83524643     -82.51113088      17.17711265        5        1
W      181.06177934     -82.58447822      18.85638905        3        1
Se     182.00242311     -80.91500997      20.53566545        4        1
Se     182.00242311     -80.91500997      17.17711265        5        1
W      178.22895603     -80.98835731      18.85638905        3        1
Se     179.16959980     -79.31888905      20.53566545        4        1
Se     179.16959980     -79.31888905      17.17711265        5        1
W      175.39613271     -79.39223640      18.85638905        3        1
Se     176.33677648     -77.72276814      20.53566545        4        1
Se     176.33677648     -77.72276814      17.17711265        5        1
W      172.56330940     -77.79611549      18.85638905        3        1
Se     173.50395317     -76.12664723      20.53566545        4        1
Se     173.50395317     -76.12664723      17.17711265        5        1
W      169.73048608     -76.19999458      18.85638905        3        1
Se     170.67112986     -74.53052632      20.53566545        4        1
Se     170.67112986     -74.53052632      17.17711265        5        1
W      166.89766277     -74.60387367      18.85638905        3        1
Se     167.83830654     -72.93440541      20.53566545        4        1
Se     167.83830654     -72.93440541      17.17711265        5        1
W      164.06483945     -73.00775276      18.85638905        3        1
Se     165.00548323     -71.33828450      20.53566545        4        1
Se     165.00548323     -71.33828450      17.17711265        5        1
W      161.23201614     -71.41163185      18.85638905        3        1
Se     162.17265991     -69.74216359      20.53566545        4        1
Se     162.17265991     -69.74216359      17.17711265        5        1
W      158.39919282     -69.81551094      18.85638905        3        1
Se     159.33983660     -68.14604268      20.53566545        4        1
Se     159.33983660     -68.14604268      17.17711265        5        1
W      155.56636951     -68.21939003      18.85638905        3        1
Se     156.50701328     -66.54992177      20.53566545        4        1
Se     156.50701328     -66.54992177      17.17711265        5        1
W      152.73354619     -66.62326912      18.85638905        3        1
Se     153.67418997     -64.95380086      20.53566545        4        1
Se     153.67418997     -64.95380086      17.17711265        5        1
W      149.90072288     -65.02714821      18.85638905        3        1
Se     150.84136665     -63.35767995      20.53566545        4        1
Se     150.84136665     -63.35767995      17.17711265        5        1
W      147.06789956     -63.43102730      18.85638905        3        1
Se     148.00854334     -61.76155904      20.53566545        4        1
Se     148.00854334     -61.76155904      17.17711265        5        1
W      144.23507625     -61.83490639      18.85638905        3        1
Se     145.17572002     -60.16543813      20.53566545        4        1
Se     145.17572002     -60.16543813      17.17711265        5        1
W      141.40225293     -60.23878548      18.85638905        3        1
Se     142.34289671     -58.56931722      20.53566545        4        1
Se     142.34289671     -58.56931722      17.17711265        5        1
W      138.56942962     -58.64266456      18.85638905        3        1
Se     139.51007339     -56.97319631      20.53566545        4        1
Se     139.51007339     -56.97319631      17.17711265        5        1
W      135.73660630     -57.04654365      18.85638905        3        1
Se     136.67725008     -55.37707540      20.53566545        4        1
Se     136.67725008     -55.37707540      17.17711265        5        1
W      132.90378299     -55.45042274      18.85638905        3        1
Se     133.84442676     -53.78095449      20.53566545        4        1
Se     133.84442676     -53.78095449      17.17711265        5        1
W      130.07095967     -53.85430183      18.85638905        3        1
Se     131.01160345     -52.18483358      20.53566545        4        1
Se     131.01160345     -52.18483358      17.17711265        5        1
W      127.23813636     -52.25818092      18.85638905        3        1
Se     128.17878013     -50.58871267      20.53566545        4        1
Se     128.17878013     -50.58871267      17.17711265        5        1
W      124.40531304     -50.66206001      18.85638905        3        1
Se     125.34595682     -48.99259175      20.53566545        4        1
Se     125.34595682     -48.99259175      17.17711265        5        1
W      121.57248973     -49.06593910      18.85638905        3        1
Se     122.51313350     -47.39647084      20.53566545        4        1
Se     122.51313350     -47.39647084      17.17711265        5        1
W      118.73966641     -47.46981819      18.85638905        3        1
Se     119.68031019     -45.80034993      20.53566545        4        1
Se     119.68031019     -45.80034993      17.17711265        5        1
W      115.90684310     -45.87369728      18.85638905        3        1
Se     116.84748687     -44.20422902      20.53566545        4        1
Se     116.84748687     -44.20422902      17.17711265        5        1
W      113.07401978     -44.27757637      18.85638905        3        1
Se     114.01466356     -42.60810811      20.53566545        4        1
Se     114.01466356     -42.60810811      17.17711265        5        1
W      110.24119647     -42.68145546      18.85638905        3        1
Se     111.18184024     -41.01198720      20.53566545        4        1
Se     111.18184024     -41.01198720      17.17711265        5        1
W      107.40837315     -41.08533455      18.85638905        3        1
Se     108.34901693     -39.41586629      20.53566545        4        1
Se     108.34901693     -39.41586629      17.17711265        5        1
W      104.57554984     -39.48921364      18.85638905        3        1
Se     105.51619361     -37.81974538      20.53566545        4        1
Se     105.51619361     -37.81974538      17.17711265        5        1
W      101.74272652     -37.89309273      18.85638905        3        1
Se     102.68337030     -36.22362447      20.53566545        4        1
Se     102.68337030     -36.22362447      17.17711265        5        1
W       98.90990321     -36.29697182      18.85638905        3        1
Se      99.85054698     -34.62750356      20.53566545        4        1
Se      99.85054698     -34.62750356      17.17711265        5        1
W       96.07707989     -34.70085091      18.85638905        3        1
Se      97.01772367     -33.03138265      20.53566545        4        1
Se      97.01772367     -33.03138265      17.17711265        5        1
W       93.24425658     -33.10473000      18.85638905        3        1
Se      94.18490035     -31.43526174      20.53566545        4        1
Se      94.18490035     -31.43526174      17.17711265        5        1
W       90.41143327     -31.50860909      18.85638905        3        1
Se      91.35207704     -29.83914083      20.53566545        4        1
Se      91.35207704     -29.83914083      17.17711265        5        1
W       87.57860995     -29.91248818      18.85638905        3        1
Se      88.51925372     -28.24301992      20.53566545        4        1
Se      88.51925372     -28.24301992      17.17711265        5        1
W       84.74578664     -28.31636726      18.85638905        3        1
Se      85.68643041     -26.64689901      20.53566545        4        1
Se      85.68643041     -26.64689901      17.17711265        5        1
W       81.91296332     -26.72024635      18.85638905        3        1
Se      82.85360710     -25.05077810      20.53566545        4        1
Se      82.85360710     -25.05077810      17.17711265        5        1
W       79.08014001     -25.12412544      18.85638905        3        1
Se      80.02078378     -23.45465719      20.53566545        4        1
Se      80.02078378     -23.45465719      17.17711265        5        1
W       76.24731669     -23.52800453      18.85638905        3        1
Se      77.18796047     -21.85853628      20.53566545        4        1
Se      77.18796047     -21.85853628      17.17711265        5        1
W       73.41449338     -21.93188362      18.85638905        3        1
Se      74.35513715     -20.26241536      20.53566545        4        1
Se      74.35513715     -20.26241536      17.17711265        5        1
W       70.58167006     -20.33576271      18.85638905        3        1
Se      71.52231384     -18.66629445      20.53566545        4        1
Se      71.52231384     -18.66629445      17.17711265        5        1
W       67.74884675     -18.73964180      18.85638905        3        1
Se      68.68949052     -17.07017354      20.53566545        4        1
Se      68.68949052     -17.07017354      17.17711265        5        1
W       64.91602343     -17.14352089      18.85638905        3        1
Se      65.85666721     -15.47405263      20.53566545        4        1
Se      65.85666721     -15.47405263      17.17711265        5        1
W       62.08320012     -15.54739998      18.85638905        3        1
Se      63.02384389     -13.87793172      20.53566545        4        1
Se      63.02384389     -13.87793172      17.17711265        5        1
W       59.25037680     -13.95127907      18.85638905        3        1
Se      60.19102058     -12.28181081      20.53566545        4        1
Se      60.19102058     -12.28181081      17.17711265        5        1
W       56.41755349     -12.35515816      18.85638905        3        1
Se      57.35819726     -10.68568990      20.53566545        4        1
Se      57.35819726     -10.68568990      17.17711265        5        1
W       53.58473017     -10.75903725      18.85638905        3        1
Se      54.52537395      -9.08956899      20.53566545        4        1
Se      54.52537395      -9.08956899      17.17711265        5        1
W       50.75190686      -9.16291634      18.85638905        3        1
Se      51.69255063      -7.49344808      20.53566545        4        1
Se      51.69255063      -7.49344808      17.17711265        5        1
W       47.91908354      -7.56679543      18.85638905        3        1
Se      48.85972732      -5.89732717      20.53566545        4        1
Se      48.85972732      -5.89732717      17.17711265        5        1
W       45.08626023      -5.97067452      18.85638905        3        1
Se      46.02690400      -4.30120626      20.53566545        4        1
Se      46.02690400      -4.30120626      17.17711265        5        1
W       42.25343691      -4.37455361      18.85638905        3        1
Se      43.19408069      -2.70508535      20.53566545        4        1
Se      43.19408069      -2.70508535      17.17711265        5        1
W       39.42061360      -2.77843270      18.85638905        3        1
Se      40.36125737      -1.10896444      20.53566545        4        1
Se      40.36125737      -1.10896444      17.17711265        5        1
W      203.69023546     -92.10208810      18.85638905        3        1
Se     204.63087923     -90.43261984      20.53566545        4        1
Se     204.63087923     -90.43261984      17.17711265        5        1
W      200.85741214     -90.50596719      18.85638905        3        1
Se     201.79805592     -88.83649893      20.53566545        4        1
Se     201.79805592     -88.83649893      17.17711265        5        1
W      198.02458883     -88.90984628      18.85638905        3        1
Se     198.96523260     -87.24037802      20.53566545        4        1
Se     198.96523260     -87.24037802      17.17711265        5        1
W      195.19176551     -87.31372537      18.85638905        3        1
Se     196.13240929     -85.64425711      20.53566545        4        1
Se     196.13240929     -85.64425711      17.17711265        5        1
W      192.35894220     -85.71760445      18.85638905        3        1
Se     193.29958597     -84.04813620      20.53566545        4        1
Se     193.29958597     -84.04813620      17.17711265        5        1
W      189.52611888     -84.12148354      18.85638905        3        1
Se     190.46676266     -82.45201529      20.53566545        4        1
Se     190.46676266     -82.45201529      17.17711265        5        1
W      186.69329557     -82.52536263      18.85638905        3        1
Se     187.63393934     -80.85589438      20.53566545        4        1
Se     187.63393934     -80.85589438      17.17711265        5        1
W      183.86047225     -80.92924172      18.85638905        3        1
Se     184.80111603     -79.25977347      20.53566545        4        1
Se     184.80111603     -79.25977347      17.17711265        5        1
W      181.02764894     -79.33312081      18.85638905        3        1
Se     181.96829271     -77.66365255      20.53566545        4        1
Se     181.96829271     -77.66365255      17.17711265        5        1
W      178.19482562     -77.73699990      18.85638905        3        1
Se     179.13546940     -76.06753164      20.53566545        4        1
Se     179.13546940     -76.06753164      17.17711265        5        1
W      175.36200231     -76.14087899      18.85638905        3        1
Se     176.30264608     -74.47141073      20.53566545        4        1
Se     176.30264608     -74.47141073      17.17711265        5        1
W      172.52917899     -74.54475808      18.85638905        3        1
Se     173.46982277     -72.87528982      20.53566545        4        1
Se     173.46982277     -72.87528982      17.17711265        5        1
W      169.69635568     -72.94863717      18.85638905        3        1
Se     170.63699945     -71.27916891      20.53566545        4        1
Se     170.63699945     -71.27916891      17.17711265        5        1
W      166.86353236     -71.35251626      18.85638905        3        1
Se     167.80417614     -69.68304800      20.53566545        4        1
Se     167.80417614     -69.68304800      17.17711265        5        1
W      164.03070905     -69.75639535      18.85638905        3        1
Se     164.97135282     -68.08692709      20.53566545        4        1
Se     164.97135282     -68.08692709      17.17711265        5        1
W      161.19788573     -68.16027444      18.85638905        3        1
Se     162.13852951     -66.49080618      20.53566545        4        1
Se     162.13852951     -66.49080618      17.17711265        5        1
W      158.36506242     -66.56415353      18.85638905        3        1
Se     159.30570619     -64.89468527      20.53566545        4        1
Se     159.30570619     -64.89468527      17.17711265        5        1
W      155.53223911     -64.96803262      18.85638905        3        1
Se     156.47288288     -63.29856436      20.53566545        4        1
Se     156.47288288     -63.29856436      17.17711265        5        1
W      152.69941579     -63.37191171      18.85638905        3        1
Se     153.64005956     -61.70244345      20.53566545        4        1
Se     153.64005956     -61.70244345      17.17711265        5        1
W      149.86659248     -61.77579080      18.85638905        3        1
Se     150.80723625     -60.10632254      20.53566545        4        1
Se     150.80723625     -60.10632254      17.17711265        5        1
W      147.03376916     -60.17966989      18.85638905        3        1
Se     147.97441294     -58.51020163      20.53566545        4        1
Se     147.97441294     -58.51020163      17.17711265        5        1
W      144.20094585     -58.58354898      18.85638905        3        1
Se     145.14158962     -56.91408072      20.53566545        4        1
Se     145.14158962     -56.91408072      17.17711265        5        1
W      141.36812253     -56.98742807      18.85638905        3        1
Se     142.30876631     -55.31795981      20.53566545        4        1
Se     142.30876631     -55.31795981      17.17711265        5        1
W      138.53529922     -55.39130715      18.85638905        3        1
Se     139.47594299     -53.72183890      20.53566545        4        1
Se     139.47594299     -53.72183890      17.17711265        5        1
W      135.70247590     -53.79518624      18.85638905        3        1
Se     136.64311968     -52.12571799      20.53566545        4        1
Se     136.64311968     -52.12571799      17.17711265        5        1
W      132.86965259     -52.19906533      18.85638905        3        1
Se     133.81029636     -50.52959708      20.53566545        4        1
Se     133.81029636     -50.52959708      17.17711265        5        1
W      130.03682927     -50.60294442      18.85638905        3        1
Se     130.97747305     -48.93347617      20.53566545        4        1
Se     130.97747305     -48.93347617      17.17711265        5        1
W      127.20400596     -49.00682351      18.85638905        3        1
Se     128.14464973     -47.33735525      20.53566545        4        1
Se     128.14464973     -47.33735525      17.17711265        5        1
W      124.37118264     -47.41070260      18.85638905        3        1
Se     125.31182642     -45.74123434      20.53566545        4        1
Se     125.31182642     -45.74123434      17.17711265        5        1
W      121.53835933     -45.81458169      18.85638905        3        1
Se     122.47900310     -44.14511343      20.53566545        4        1
Se     122.47900310     -44.14511343      17.17711265        5        1
W      118.70553601     -44.21846078      18.85638905        3        1
Se     119.64617979     -42.54899252      20.53566545        4        1
Se     119.64617979     -42.54899252      17.17711265        5        1
W      115.87271270     -42.62233987      18.85638905        3        1
Se     116.81335647     -40.95287161      20.53566545        4        1
Se     116.81335647     -40.95287161      17.17711265        5        1
W      113.03988938     -41.02621896      18.85638905        3        1
Se     113.98053316     -39.35675070      20.53566545        4        1
Se     113.98053316     -39.35675070      17.17711265        5        1
W      110.20706607     -39.43009805      18.85638905        3        1
Se     111.14770984     -37.76062979      20.53566545        4        1
Se     111.14770984     -37.76062979      17.17711265        5        1
W      107.37424275     -37.83397714      18.85638905        3        1
Se     108.31488653     -36.16450888      20.53566545        4        1
Se     108.31488653     -36.16450888      17.17711265        5        1
W      104.54141944     -36.23785623      18.85638905        3        1
Se     105.48206321     -34.56838797      20.53566545        4        1
Se     105.48206321     -34.56838797      17.17711265        5        1
W      101.70859612     -34.64173532      18.85638905        3        1
Se     102.64923990     -32.97226706      20.53566545        4        1
Se     102.64923990     -32.97226706      17.17711265        5        1
W       98.87577281     -33.04561441      18.85638905        3        1
Se      99.81641658     -31.37614615      20.53566545        4        1
Se      99.81641658     -31.37614615      17.17711265        5        1
W       96.04294949     -31.44949350      18.85638905        3        1
Se      96.98359327     -29.78002524      20.53566545        4        1
Se      96.98359327     -29.78002524      17.17711265        5        1
W       93.21012618     -29.85337259      18.85638905        3        1
Se      94.15076995     -28.18390433      20.53566545        4        1
Se      94.15076995     -28.18390433      17.17711265        5        1
W       90.37730286     -28.25725168      18.85638905        3        1
Se      91.31794664     -26.58778342      20.53566545        4        1
Se      91.31794664     -26.58778342      17.17711265        5        1
W       87.54447955     -26.66113076      18.85638905        3        1
Se      88.48512332     -24.99166251      20.53566545        4        1
Se      88.48512332     -24.99166251      17.17711265        5        1
W       84.71165623     -25.06500985      18.85638905        3        1
Se      85.65230001     -23.39554160      20.53566545        4        1
Se      85.65230001     -23.39554160      17.17711265        5        1
W       81.87883292     -23.46888894      18.85638905        3        1
Se      82.81947669     -21.79942069      20.53566545        4        1
Se      82.81947669     -21.79942069      17.17711265        5        1
W       79.04600960     -21.87276803      18.85638905        3        1
Se      79.98665338     -20.20329978      20.53566545        4        1
Se      79.98665338     -20.20329978      17.17711265        5        1
W       76.21318629     -20.27664712      18.85638905        3        1
Se      77.15383006     -18.60717887      20.53566545        4        1
Se      77.15383006     -18.60717887      17.17711265        5        1
W       73.38036297     -18.68052621      18.85638905        3        1
Se      74.32100675     -17.01105795      20.53566545        4        1
Se      74.32100675     -17.01105795      17.17711265        5        1
W       70.54753966     -17.08440530      18.85638905        3        1
Se      71.48818343     -15.41493704      20.53566545        4        1
Se      71.48818343     -15.41493704      17.17711265        5        1
W       67.71471635     -15.48828439      18.85638905        3        1
Se      68.65536012     -13.81881613      20.53566545        4        1
Se      68.65536012     -13.81881613      17.17711265        5        1
W       64.88189303     -13.89216348      18.85638905        3        1
Se      65.82253680     -12.22269522      20.53566545        4        1
Se      65.82253680     -12.22269522      17.17711265        5        1
W       62.04906972     -12.29604257      18.85638905        3        1
Se      62.98971349     -10.62657431      20.53566545        4        1
Se      62.98971349     -10.62657431      17.17711265        5        1
W       59.21624640     -10.69992166      18.85638905        3        1
Se      60.15689018      -9.03045340      20.53566545        4        1
Se      60.15689018      -9.03045340      17.17711265        5        1
W       56.38342309      -9.10380075      18.85638905        3        1
Se      57.32406686      -7.43433249      20.53566545        4        1
Se      57.32406686      -7.43433249      17.17711265        5        1
W       53.55059977      -7.50767984      18.85638905        3        1
Se      54.49124355      -5.83821158      20.53566545        4        1
Se      54.49124355      -5.83821158      17.17711265        5        1
W       50.71777646      -5.91155893      18.85638905        3        1
Se      51.65842023      -4.24209067      20.53566545        4        1
Se      51.65842023      -4.24209067      17.17711265        5        1
W       47.88495314      -4.31543802      18.85638905        3        1
Se      48.82559692      -2.64596976      20.53566545        4        1
Se      48.82559692      -2.64596976      17.17711265        5        1
W       45.05212983      -2.71931711      18.85638905        3        1
Se      45.99277360      -1.04984885      20.53566545        4        1
Se      45.99277360      -1.04984885      17.17711265        5        1
W      200.82328174     -87.25460978      18.85638905        3        1
Se     201.76392552     -85.58514152      20.53566545        4        1
Se     201.76392552     -85.58514152      17.17711265        5        1
W      197.99045843     -85.65848887      18.85638905        3        1
Se     198.93110220     -83.98902061      20.53566545        4        1
Se     198.93110220     -83.98902061      17.17711265        5        1
W      195.15763511     -84.06236795      18.85638905        3        1
Se     196.09827889     -82.39289970      20.53566545        4        1
Se     196.09827889     -82.39289970      17.17711265        5        1
W      192.32481180     -82.46624704      18.85638905        3        1
Se     193.26545557     -80.79677879      20.53566545        4        1
Se     193.26545557     -80.79677879      17.17711265        5        1
W      189.49198848     -80.87012613      18.85638905        3        1
Se     190.43263226     -79.20065788      20.53566545        4        1
Se     190.43263226     -79.20065788      17.17711265        5        1
W      186.65916517     -79.27400522      18.85638905        3        1
Se     187.59980894     -77.60453697      20.53566545        4        1
Se     187.59980894     -77.60453697      17.17711265        5        1
W      183.82634185     -77.67788431      18.85638905        3        1
Se     184.76698563     -76.00841606      20.53566545        4        1
Se     184.76698563     -76.00841606      17.17711265        5        1
W      180.99351854     -76.08176340      18.85638905        3        1
Se     181.93416231     -74.41229514      20.53566545        4        1
Se     181.93416231     -74.41229514      17.17711265        5        1
W      178.16069522     -74.48564249      18.85638905        3        1
Se     179.10133900     -72.81617423      20.53566545        4        1
Se     179.10133900     -72.81617423      17.17711265        5        1
W      175.32787191     -72.88952158      18.85638905        3        1
Se     176.26851568     -71.22005332      20.53566545        4        1
Se     176.26851568     -71.22005332      17.17711265        5        1
W      172.49504859     -71.29340067      18.85638905        3        1
Se     173.43569237     -69.62393241      20.53566545        4        1
Se     173.43569237     -69.62393241      17.17711265        5        1
W      169.66222528     -69.69727976      18.85638905        3        1
Se     170.60286905     -68.02781150      20.53566545        4        1
Se     170.60286905     -68.02781150      17.17711265        5        1
W      166.82940196     -68.10115885      18.85638905        3        1
Se     167.77004574     -66.43169059      20.53566545        4        1
Se     167.77004574     -66.43169059      17.17711265        5        1
W      163.99657865     -66.50503794      18.85638905        3        1
Se     164.93722242     -64.83556968      20.53566545        4        1
Se     164.93722242     -64.83556968      17.17711265        5        1
W      161.16375533     -64.90891703      18.85638905        3        1
Se     162.10439911     -63.23944877      20.53566545        4        1
Se     162.10439911     -63.23944877      17.17711265        5        1
W      158.33093202     -63.31279612      18.85638905        3        1
Se     159.27157579     -61.64332786      20.53566545        4        1
Se     159.27157579     -61.64332786      17.17711265        5        1
W      155.49810870     -61.71667521      18.85638905        3        1
Se     156.43875248     -60.04720695      20.53566545        4        1
Se     156.43875248     -60.04720695      17.17711265        5        1
W      152.66528539     -60.12055430      18.85638905        3        1
Se     153.60592916     -58.45108604      20.53566545        4        1
Se     153.60592916     -58.45108604      17.17711265        5        1
W      149.83246207     -58.52443339      18.85638905        3        1
Se     150.77310585     -56.85496513      20.53566545        4        1
Se     150.77310585     -56.85496513      17.17711265        5        1
W      146.99963876     -56.92831248      18.85638905        3        1
Se     147.94028253     -55.25884422      20.53566545        4        1
Se     147.94028253     -55.25884422      17.17711265        5        1
W      144.16681544     -55.33219157      18.85638905        3        1
Se     145.10745922     -53.66272331      20.53566545        4        1
Se     145.10745922     -53.66272331      17.17711265        5        1
W      141.33399213     -53.73607065      18.85638905        3        1
Se     142.27463590     -52.06660240      20.53566545        4        1
Se     142.27463590     -52.06660240      17.17711265        5        1
W      138.50116881     -52.13994974      18.85638905        3        1
Se     139.44181259     -50.47048149      20.53566545        4        1
Se     139.44181259     -50.47048149      17.17711265        5        1
W      135.66834550     -50.54382883      18.85638905        3        1
Se     136.60898927     -48.87436058      20.53566545        4        1
Se     136.60898927     -48.87436058      17.17711265        5        1
W      132.83552219     -48.94770792      18.85638905        3        1
Se     133.77616596     -47.27823967      20.53566545        4        1
Se     133.77616596     -47.27823967      17.17711265        5        1
W      130.00269887     -47.35158701      18.85638905        3        1
Se     130.94334264     -45.68211875      20.53566545        4        1
Se     130.94334264     -45.68211875      17.17711265        5        1
W      127.16987556     -45.75546610      18.85638905        3        1
Se     128.11051933     -44.08599784      20.53566545        4        1
Se     128.11051933     -44.08599784      17.17711265        5        1
W      124.33705224     -44.15934519      18.85638905        3        1
Se     125.27769601     -42.48987693      20.53566545        4        1
Se     125.27769601     -42.48987693      17.17711265        5        1
W      121.50422893     -42.56322428      18.85638905        3        1
Se     122.44487270     -40.89375602      20.53566545        4        1
Se     122.44487270     -40.89375602      17.17711265        5        1
W      118.67140561     -40.96710337      18.85638905        3        1
Se     119.61204939     -39.29763511      20.53566545        4        1
Se     119.61204939     -39.29763511      17.17711265        5        1
W      115.83858230     -39.37098246      18.85638905        3        1
Se     116.77922607     -37.70151420      20.53566545        4        1
Se     116.77922607     -37.70151420      17.17711265        5        1
W      113.00575898     -37.77486155      18.85638905        3        1
Se     113.94640276     -36.10539329      20.53566545        4        1
Se     113.94640276     -36.10539329      17.17711265        5        1
W      110.17293567     -36.17874064      18.85638905        3        1
Se     111.11357944     -34.50927238      20.53566545        4        1
Se     111.11357944     -34.50927238      17.17711265        5        1
W      107.34011235     -34.58261973      18.85638905        3        1
Se     108.28075613     -32.91315147      20.53566545        4        1
Se     108.28075613     -32.91315147      17.17711265        5        1
W      104.50728904     -32.98649882      18.85638905        3        1
Se     105.44793281     -31.31703056      20.53566545        4        1
Se     105.44793281     -31.31703056      17.17711265        5        1
W      101.67446572     -31.39037791      18.85638905        3        1
Se     102.61510950     -29.72090965      20.53566545        4        1
Se     102.61510950     -29.72090965      17.17711265        5        1
W       98.84164241     -29.79425700      18.85638905        3        1
Se      99.78228618     -28.12478874      20.53566545        4        1
Se      99.78228618     -28.12478874      17.17711265        5        1
W       96.00881909     -28.19813609      18.85638905        3        1
Se      96.94946287     -26.52866783      20.53566545        4        1
Se      96.94946287     -26.52866783      17.17711265        5        1
W       93.17599578     -26.60201518      18.85638905        3        1
Se      94.11663955     -24.93254692      20.53566545        4        1
Se      94.11663955     -24.93254692      17.17711265        5        1
W       90.34317246     -25.00589427      18.85638905        3        1
Se      91.28381624     -23.33642601      20.53566545        4        1
Se      91.28381624     -23.33642601      17.17711265        5        1
W       87.51034915     -23.40977335      18.85638905        3        1
Se      88.45099292     -21.74030510      20.53566545        4        1
Se      88.45099292     -21.74030510      17.17711265        5        1
W       84.67752583     -21.81365244      18.85638905        3        1
Se      85.61816961     -20.14418419      20.53566545        4        1
Se      85.61816961     -20.14418419      17.17711265        5        1
W       81.84470252     -20.21753153      18.85638905        3        1
Se      82.78534629     -18.54806328      20.53566545        4        1
Se      82.78534629     -18.54806328      17.17711265        5        1
W       79.01187920     -18.62141062      18.85638905        3        1
Se      79.95252298     -16.95194237      20.53566545        4        1
Se      79.95252298     -16.95194237      17.17711265        5        1
W       76.17905589     -17.02528971      18.85638905        3        1
Se      77.11969966     -15.35582145      20.53566545        4        1
Se      77.11969966     -15.35582145      17.17711265        5        1
W       73.34623257     -15.42916880      18.85638905        3        1
Se      74.28687635     -13.75970054      20.53566545        4        1
Se      74.28687635     -13.75970054      17.17711265        5        1
W       70.51340926     -13.83304789      18.85638905        3        1
Se      71.45405303     -12.16357963      20.53566545        4        1
Se      71.45405303     -12.16357963      17.17711265        5        1
W       67.68058594     -12.23692698      18.85638905        3        1
Se      68.62122972     -10.56745872      20.53566545        4        1
Se      68.62122972     -10.56745872      17.17711265        5        1
W       64.84776263     -10.64080607      18.85638905        3        1
Se      65.78840640      -8.97133781      20.53566545        4        1
Se      65.78840640      -8.97133781      17.17711265        5        1
W       62.01493931      -9.04468516      18.85638905        3        1
Se      62.95558309      -7.37521690      20.53566545        4        1
Se      62.95558309      -7.37521690      17.17711265        5        1
W       59.18211600      -7.44856425      18.85638905        3        1
Se      60.12275977      -5.77909599      20.53566545        4        1
Se      60.12275977      -5.77909599      17.17711265        5        1
W       56.34929268      -5.85244334      18.85638905        3        1
Se      57.28993646      -4.18297508      20.53566545        4        1
Se      57.28993646      -4.18297508      17.17711265        5        1
W       53.51646937      -4.25632243      18.85638905        3        1
Se      54.45711314      -2.58685417      20.53566545        4        1
Se      54.45711314      -2.58685417      17.17711265        5        1
W       50.68364605      -2.66020152      18.85638905        3        1
Se      51.62428983      -0.99073326      20.53566545        4        1
Se      51.62428983      -0.99073326      17.17711265        5        1
W      197.95632802     -82.40713146      18.85638905        3        1
Se     198.89697180     -80.73766320      20.53566545        4        1
Se     198.89697180     -80.73766320      17.17711265        5        1
W      195.12350471     -80.81101054      18.85638905        3        1
Se     196.06414848     -79.14154229      20.53566545        4        1
Se     196.06414848     -79.14154229      17.17711265        5        1
W      192.29068140     -79.21488963      18.85638905        3        1
Se     193.23132517     -77.54542138      20.53566545        4        1
Se     193.23132517     -77.54542138      17.17711265        5        1
W      189.45785808     -77.61876872      18.85638905        3        1
Se     190.39850185     -75.94930047      20.53566545        4        1
Se     190.39850185     -75.94930047      17.17711265        5        1
W      186.62503477     -76.02264781      18.85638905        3        1
Se     187.56567854     -74.35317956      20.53566545        4        1
Se     187.56567854     -74.35317956      17.17711265        5        1
W      183.79221145     -74.42652690      18.85638905        3        1
Se     184.73285523     -72.75705864      20.53566545        4        1
Se     184.73285523     -72.75705864      17.17711265        5        1
W      180.95938814     -72.83040599      18.85638905        3        1
Se     181.90003191     -71.16093773      20.53566545        4        1
Se     181.90003191     -71.16093773      17.17711265        5        1
W      178.12656482     -71.23428508      18.85638905        3        1
Se     179.06720860     -69.56481682      20.53566545        4        1
Se     179.06720860     -69.56481682      17.17711265        5        1
W      175.29374151     -69.63816417      18.85638905        3        1
Se     176.23438528     -67.96869591      20.53566545        4        1
Se     176.23438528     -67.96869591      17.17711265        5        1
W      172.46091819     -68.04204326      18.85638905        3        1
Se     173.40156197     -66.37257500      20.53566545        4        1
Se     173.40156197     -66.37257500      17.17711265        5        1
W      169.62809488     -66.44592235      18.85638905        3        1
Se     170.56873865     -64.77645409      20.53566545        4        1
Se     170.56873865     -64.77645409      17.17711265        5        1
W      166.79527156     -64.84980144      18.85638905        3        1
Se     167.73591534     -63.18033318      20.53566545        4        1
Se     167.73591534     -63.18033318      17.17711265        5        1
W      163.96244825     -63.25368053      18.85638905        3        1
Se     164.90309202     -61.58421227      20.53566545        4        1
Se     164.90309202     -61.58421227      17.17711265        5        1
W      161.12962493     -61.65755962      18.85638905        3        1
Se     162.07026871     -59.98809136      20.53566545        4        1
Se     162.07026871     -59.98809136      17.17711265        5        1
W      158.29680162     -60.06143871      18.85638905        3        1
Se     159.23744539     -58.39197045      20.53566545        4        1
Se     159.23744539     -58.39197045      17.17711265        5        1
W      155.46397830     -58.46531780      18.85638905        3        1
Se     156.40462208     -56.79584954      20.53566545        4        1
Se     156.40462208     -56.79584954      17.17711265        5        1
W      152.63115499     -56.86919689      18.85638905        3        1
Se     153.57179876     -55.19972863      20.53566545        4        1
Se     153.57179876     -55.19972863      17.17711265        5        1
W      149.79833167     -55.27307598      18.85638905        3        1
Se     150.73897545     -53.60360772      20.53566545        4        1
Se     150.73897545     -53.60360772      17.17711265        5        1
W      146.96550836     -53.67695507      18.85638905        3        1
Se     147.90615213     -52.00748681      20.53566545        4        1
Se     147.90615213     -52.00748681      17.17711265        5        1
W      144.13268504     -52.08083415      18.85638905        3        1
Se     145.07332882     -50.41136590      20.53566545        4        1
Se     145.07332882     -50.41136590      17.17711265        5        1
W      141.29986173     -50.48471324      18.85638905        3        1
Se     142.24050550     -48.81524499      20.53566545        4        1
Se     142.24050550     -48.81524499      17.17711265        5        1
W      138.46703841     -48.88859233      18.85638905        3        1
Se     139.40768219     -47.21912408      20.53566545        4        1
Se     139.40768219     -47.21912408      17.17711265        5        1
W      135.63421510     -47.29247142      18.85638905        3        1
Se     136.57485887     -45.62300317      20.53566545        4        1
Se     136.57485887     -45.62300317      17.17711265        5        1
W      132.80139178     -45.69635051      18.85638905        3        1
Se     133.74203556     -44.02688226      20.53566545        4        1
Se     133.74203556     -44.02688226      17.17711265        5        1
W      129.96856847     -44.10022960      18.85638905        3        1
Se     130.90921224     -42.43076134      20.53566545        4        1
Se     130.90921224     -42.43076134      17.17711265        5        1
W      127.13574515     -42.50410869      18.85638905        3        1
Se     128.07638893     -40.83464043      20.53566545        4        1
Se     128.07638893     -40.83464043      17.17711265        5        1
W      124.30292184     -40.90798778      18.85638905        3        1
Se     125.24356561     -39.23851952      20.53566545        4        1
Se     125.24356561     -39.23851952      17.17711265        5        1
W      121.47009852     -39.31186687      18.85638905        3        1
Se     122.41074230     -37.64239861      20.53566545        4        1
Se     122.41074230     -37.64239861      17.17711265        5        1
W      118.63727521     -37.71574596      18.85638905        3        1
Se     119.57791898     -36.04627770      20.53566545        4        1
Se     119.57791898     -36.04627770      17.17711265        5        1
W      115.80445189     -36.11962505      18.85638905        3        1
Se     116.74509567     -34.45015679      20.53566545        4        1
Se     116.74509567     -34.45015679      17.17711265        5        1
W      112.97162858     -34.52350414      18.85638905        3        1
Se     113.91227235     -32.85403588      20.53566545        4        1
Se     113.91227235     -32.85403588      17.17711265        5        1
W      110.13880526     -32.92738323      18.85638905        3        1
Se     111.07944904     -31.25791497      20.53566545        4        1
Se     111.07944904     -31.25791497      17.17711265        5        1
W      107.30598195     -31.33126232      18.85638905        3        1
Se     108.24662572     -29.66179406      20.53566545        4        1
Se     108.24662572     -29.66179406      17.17711265        5        1
W      104.47315864     -29.73514141      18.85638905        3        1
Se     105.41380241     -28.06567315      20.53566545        4        1
Se     105.41380241     -28.06567315      17.17711265        5        1
W      101.64033532     -28.13902050      18.85638905        3        1
Se     102.58097909     -26.46955224      20.53566545        4        1
Se     102.58097909     -26.46955224      17.17711265        5        1
W       98.80751201     -26.54289959      18.85638905        3        1
Se      99.74815578     -24.87343133      20.53566545        4        1
Se      99.74815578     -24.87343133      17.17711265        5        1
W       95.97468869     -24.94677868      18.85638905        3        1
Se      96.91533247     -23.27731042      20.53566545        4        1
Se      96.91533247     -23.27731042      17.17711265        5        1
W       93.14186538     -23.35065777      18.85638905        3        1
Se      94.08250915     -21.68118951      20.53566545        4        1
Se      94.08250915     -21.68118951      17.17711265        5        1
W       90.30904206     -21.75453685      18.85638905        3        1
Se      91.24968584     -20.08506860      20.53566545        4        1
Se      91.24968584     -20.08506860      17.17711265        5        1
W       87.47621875     -20.15841594      18.85638905        3        1
Se      88.41686252     -18.48894769      20.53566545        4        1
Se      88.41686252     -18.48894769      17.17711265        5        1
W       84.64339543     -18.56229503      18.85638905        3        1
Se      85.58403921     -16.89282678      20.53566545        4        1
Se      85.58403921     -16.89282678      17.17711265        5        1
W       81.81057212     -16.96617412      18.85638905        3        1
Se      82.75121589     -15.29670587      20.53566545        4        1
Se      82.75121589     -15.29670587      17.17711265        5        1
W       78.97774880     -15.37005321      18.85638905        3        1
Se      79.91839258     -13.70058495      20.53566545        4        1
Se      79.91839258     -13.70058495      17.17711265        5        1
W       76.14492549     -13.77393230      18.85638905        3        1
Se      77.08556926     -12.10446404      20.53566545        4        1
Se      77.08556926     -12.10446404      17.17711265        5        1
W       73.31210217     -12.17781139      18.85638905        3        1
Se      74.25274595     -10.50834313      20.53566545        4        1
Se      74.25274595     -10.50834313      17.17711265        5        1
W       70.47927886     -10.58169048      18.85638905        3        1
Se      71.41992263      -8.91222222      20.53566545        4        1
Se      71.41992263      -8.91222222      17.17711265        5        1
W       67.64645554      -8.98556957      18.85638905        3        1
Se      68.58709932      -7.31610131      20.53566545        4        1
Se      68.58709932      -7.31610131      17.17711265        5        1
W       64.81363223      -7.38944866      18.85638905        3        1
Se      65.75427600      -5.71998040      20.53566545        4        1
Se      65.75427600      -5.71998040      17.17711265        5        1
W       61.98080891      -5.79332775      18.85638905        3        1
Se      62.92145269      -4.12385949      20.53566545        4        1
Se      62.92145269      -4.12385949      17.17711265        5        1
W       59.14798560      -4.19720684      18.85638905        3        1
Se      60.08862937      -2.52773858      20.53566545        4        1
Se      60.08862937      -2.52773858      17.17711265        5        1
W       56.31516228      -2.60108593      18.85638905        3        1
Se      57.25580606      -0.93161767      20.53566545        4        1
Se      57.25580606      -0.93161767      17.17711265        5        1
W      195.08937431     -77.55965313      18.85638905        3        1
Se     196.03001808     -75.89018488      20.53566545        4        1
Se     196.03001808     -75.89018488      17.17711265        5        1
W      192.25655099     -75.96353222      18.85638905        3        1
Se     193.19719477     -74.29406397      20.53566545        4        1
Se     193.19719477     -74.29406397      17.17711265        5        1
W      189.42372768     -74.36741131      18.85638905        3        1
Se     190.36437145     -72.69794306      20.53566545        4        1
Se     190.36437145     -72.69794306      17.17711265        5        1
W      186.59090436     -72.77129040      18.85638905        3        1
Se     187.53154814     -71.10182214      20.53566545        4        1
Se     187.53154814     -71.10182214      17.17711265        5        1
W      183.75808105     -71.17516949      18.85638905        3        1
Se     184.69872482     -69.50570123      20.53566545        4        1
Se     184.69872482     -69.50570123      17.17711265        5        1
W      180.92525773     -69.57904858      18.85638905        3        1
Se     181.86590151     -67.90958032      20.53566545        4        1
Se     181.86590151     -67.90958032      17.17711265        5        1
W      178.09243442     -67.98292767      18.85638905        3        1
Se     179.03307819     -66.31345941      20.53566545        4        1
Se     179.03307819     -66.31345941      17.17711265        5        1
W      175.25961110     -66.38680676      18.85638905        3        1
Se     176.20025488     -64.71733850      20.53566545        4        1
Se     176.20025488     -64.71733850      17.17711265        5        1
W      172.42678779     -64.79068585      18.85638905        3        1
Se     173.36743156     -63.12121759      20.53566545        4        1
Se     173.36743156     -63.12121759      17.17711265        5        1
W      169.59396448     -63.19456494      18.85638905        3        1
Se     170.53460825     -61.52509668      20.53566545        4        1
Se     170.53460825     -61.52509668      17.17711265        5        1
W      166.76114116     -61.59844403      18.85638905        3        1
Se     167.70178493     -59.92897577      20.53566545        4        1
Se     167.70178493     -59.92897577      17.17711265        5        1
W      163.92831785     -60.00232312      18.85638905        3        1
Se     164.86896162     -58.33285486      20.53566545        4        1
Se     164.86896162     -58.33285486      17.17711265        5        1
W      161.09549453     -58.40620221      18.85638905        3        1
Se     162.03613831     -56.73673395      20.53566545        4        1
Se     162.03613831     -56.73673395      17.17711265        5        1
W      158.26267122     -56.81008130      18.85638905        3        1
Se     159.20331499     -55.14061304      20.53566545        4        1
Se     159.20331499     -55.14061304      17.17711265        5        1
W      155.42984790     -55.21396039      18.85638905        3        1
Se     156.37049168     -53.54449213      20.53566545        4        1
Se     156.37049168     -53.54449213      17.17711265        5        1
W      152.59702459     -53.61783948      18.85638905        3        1
Se     153.53766836     -51.94837122      20.53566545        4        1
Se     153.53766836     -51.94837122      17.17711265        5        1
W      149.76420127     -52.02171857      18.85638905        3        1
Se     150.70484505     -50.35225031      20.53566545        4        1
Se     150.70484505     -50.35225031      17.17711265        5        1
W      146.93137796     -50.42559766      18.85638905        3        1
Se     147.87202173     -48.75612940      20.53566545        4        1
Se     147.87202173     -48.75612940      17.17711265        5        1
W      144.09855464     -48.82947674      18.85638905        3        1
Se     145.03919842     -47.16000849      20.53566545        4        1
Se     145.03919842     -47.16000849      17.17711265        5        1
W      141.26573133     -47.23335583      18.85638905        3        1
Se     142.20637510     -45.56388758      20.53566545        4        1
Se     142.20637510     -45.56388758      17.17711265        5        1
W      138.43290801     -45.63723492      18.85638905        3        1
Se     139.37355179     -43.96776667      20.53566545        4        1
Se     139.37355179     -43.96776667      17.17711265        5        1
W      135.60008470     -44.04111401      18.85638905        3        1
Se     136.54072847     -42.37164576      20.53566545        4        1
Se     136.54072847     -42.37164576      17.17711265        5        1
W      132.76726138     -42.44499310      18.85638905        3        1
Se     133.70790516     -40.77552484      20.53566545        4        1
Se     133.70790516     -40.77552484      17.17711265        5        1
W      129.93443807     -40.84887219      18.85638905        3        1
Se     130.87508184     -39.17940393      20.53566545        4        1
Se     130.87508184     -39.17940393      17.17711265        5        1
W      127.10161475     -39.25275128      18.85638905        3        1
Se     128.04225853     -37.58328302      20.53566545        4        1
Se     128.04225853     -37.58328302      17.17711265        5        1
W      124.26879144     -37.65663037      18.85638905        3        1
Se     125.20943521     -35.98716211      20.53566545        4        1
Se     125.20943521     -35.98716211      17.17711265        5        1
W      121.43596812     -36.06050946      18.85638905        3        1
Se     122.37661190     -34.39104120      20.53566545        4        1
Se     122.37661190     -34.39104120      17.17711265        5        1
W      118.60314481     -34.46438855      18.85638905        3        1
Se     119.54378858     -32.79492029      20.53566545        4        1
Se     119.54378858     -32.79492029      17.17711265        5        1
W      115.77032149     -32.86826764      18.85638905        3        1
Se     116.71096527     -31.19879938      20.53566545        4        1
Se     116.71096527     -31.19879938      17.17711265        5        1
W      112.93749818     -31.27214673      18.85638905        3        1
Se     113.87814195     -29.60267847      20.53566545        4        1
Se     113.87814195     -29.60267847      17.17711265        5        1
W      110.10467486     -29.67602582      18.85638905        3        1
Se     111.04531864     -28.00655756      20.53566545        4        1
Se     111.04531864     -28.00655756      17.17711265        5        1
W      107.27185155     -28.07990491      18.85638905        3        1
Se     108.21249532     -26.41043665      20.53566545        4        1
Se     108.21249532     -26.41043665      17.17711265        5        1
W      104.43902823     -26.48378400      18.85638905        3        1
Se     105.37967201     -24.81431574      20.53566545        4        1
Se     105.37967201     -24.81431574      17.17711265        5        1
W      101.60620492     -24.88766309      18.85638905        3        1
Se     102.54684869     -23.21819483      20.53566545        4        1
Se     102.54684869     -23.21819483      17.17711265        5        1
W       98.77338160     -23.29154218      18.85638905        3        1
Se      99.71402538     -21.62207392      20.53566545        4        1
Se      99.71402538     -21.62207392      17.17711265        5        1
W       95.94055829     -21.69542127      18.85638905        3        1
Se      96.88120206     -20.02595301      20.53566545        4        1
Se      96.88120206     -20.02595301      17.17711265        5        1
W       93.10773497     -20.09930035      18.85638905        3        1
Se      94.04837875     -18.42983210      20.53566545        4        1
Se      94.04837875     -18.42983210      17.17711265        5        1
W       90.27491166     -18.50317944      18.85638905        3        1
Se      91.21555543     -16.83371119      20.53566545        4        1
Se      91.21555543     -16.83371119      17.17711265        5        1
W       87.44208834     -16.90705853      18.85638905        3        1
Se      88.38273212     -15.23759028      20.53566545        4        1
Se      88.38273212     -15.23759028      17.17711265        5        1
W       84.60926503     -15.31093762      18.85638905        3        1
Se      85.54990880     -13.64146937      20.53566545        4        1
Se      85.54990880     -13.64146937      17.17711265        5        1
W       81.77644172     -13.71481671      18.85638905        3        1
Se      82.71708549     -12.04534846      20.53566545        4        1
Se      82.71708549     -12.04534846      17.17711265        5        1
W       78.94361840     -12.11869580      18.85638905        3        1
Se      79.88426217     -10.44922754      20.53566545        4        1
Se      79.88426217     -10.44922754      17.17711265        5        1
W       76.11079509     -10.52257489      18.85638905        3        1
Se      77.05143886      -8.85310663      20.53566545        4        1
Se      77.05143886      -8.85310663      17.17711265        5        1
W       73.27797177      -8.92645398      18.85638905        3        1
Se      74.21861555      -7.25698572      20.53566545        4        1
Se      74.21861555      -7.25698572      17.17711265        5        1
W       70.44514846      -7.33033307      18.85638905        3        1
Se      71.38579223      -5.66086481      20.53566545        4        1
Se      71.38579223      -5.66086481      17.17711265        5        1
W       67.61232514      -5.73421216      18.85638905        3        1
Se      68.55296892      -4.06474390      20.53566545        4        1
Se      68.55296892      -4.06474390      17.17711265        5        1
W       64.77950183      -4.13809125      18.85638905        3        1
Se      65.72014560      -2.46862299      20.53566545        4        1
Se      65.72014560      -2.46862299      17.17711265        5        1
W       61.94667851      -2.54197034      18.85638905        3        1
Se      62.88732229      -0.87250208      20.53566545        4        1
Se      62.88732229      -0.87250208      17.17711265        5        1
W      192.22242059     -72.71217481      18.85638905        3        1
Se     193.16306437     -71.04270656      20.53566545        4        1
Se     193.16306437     -71.04270656      17.17711265        5        1
W      189.38959728     -71.11605390      18.85638905        3        1
Se     190.33024105     -69.44658565      20.53566545        4        1
Se     190.33024105     -69.44658565      17.17711265        5        1
W      186.55677396     -69.51993299      18.85638905        3        1
Se     187.49741774     -67.85046473      20.53566545        4        1
Se     187.49741774     -67.85046473      17.17711265        5        1
W      183.72395065     -67.92381208      18.85638905        3        1
Se     184.66459442     -66.25434382      20.53566545        4        1
Se     184.66459442     -66.25434382      17.17711265        5        1
W      180.89112733     -66.32769117      18.85638905        3        1
Se     181.83177111     -64.65822291      20.53566545        4        1
Se     181.83177111     -64.65822291      17.17711265        5        1
W      178.05830402     -64.73157026      18.85638905        3        1
Se     178.99894779     -63.06210200      20.53566545        4        1
Se     178.99894779     -63.06210200      17.17711265        5        1
W      175.22548070     -63.13544935      18.85638905        3        1
Se     176.16612448     -61.46598109      20.53566545        4        1
Se     176.16612448     -61.46598109      17.17711265        5        1
W      172.39265739     -61.53932844      18.85638905        3        1
Se     173.33330116     -59.86986018      20.53566545        4        1
Se     173.33330116     -59.86986018      17.17711265        5        1
W      169.55983407     -59.94320753      18.85638905        3        1
Se     170.50047785     -58.27373927      20.53566545        4        1
Se     170.50047785     -58.27373927      17.17711265        5        1
W      166.72701076     -58.34708662      18.85638905        3        1
Se     167.66765453     -56.67761836      20.53566545        4        1
Se     167.66765453     -56.67761836      17.17711265        5        1
W      163.89418744     -56.75096571      18.85638905        3        1
Se     164.83483122     -55.08149745      20.53566545        4        1
Se     164.83483122     -55.08149745      17.17711265        5        1
W      161.06136413     -55.15484480      18.85638905        3        1
Se     162.00200790     -53.48537654      20.53566545        4        1
Se     162.00200790     -53.48537654      17.17711265        5        1
W      158.22854081     -53.55872389      18.85638905        3        1
Se     159.16918459     -51.88925563      20.53566545        4        1
Se     159.16918459     -51.88925563      17.17711265        5        1
W      155.39571750     -51.96260298      18.85638905        3        1
Se     156.33636127     -50.29313472      20.53566545        4        1
Se     156.33636127     -50.29313472      17.17711265        5        1
W      152.56289418     -50.36648207      18.85638905        3        1
Se     153.50353796     -48.69701381      20.53566545        4        1
Se     153.50353796     -48.69701381      17.17711265        5        1
W      149.73007087     -48.77036116      18.85638905        3        1
Se     150.67071464     -47.10089290      20.53566545        4        1
Se     150.67071464     -47.10089290      17.17711265        5        1
W      146.89724756     -47.17424024      18.85638905        3        1
Se     147.83789133     -45.50477199      20.53566545        4        1
Se     147.83789133     -45.50477199      17.17711265        5        1
W      144.06442424     -45.57811933      18.85638905        3        1
Se     145.00506801     -43.90865108      20.53566545        4        1
Se     145.00506801     -43.90865108      17.17711265        5        1
W      141.23160093     -43.98199842      18.85638905        3        1
Se     142.17224470     -42.31253017      20.53566545        4        1
Se     142.17224470     -42.31253017      17.17711265        5        1
W      138.39877761     -42.38587751      18.85638905        3        1
Se     139.33942138     -40.71640926      20.53566545        4        1
Se     139.33942138     -40.71640926      17.17711265        5        1
W      135.56595430     -40.78975660      18.85638905        3        1
Se     136.50659807     -39.12028834      20.53566545        4        1
Se     136.50659807     -39.12028834      17.17711265        5        1
W      132.73313098     -39.19363569      18.85638905        3        1
Se     133.67377476     -37.52416743      20.53566545        4        1
Se     133.67377476     -37.52416743      17.17711265        5        1
W      129.90030767     -37.59751478      18.85638905        3        1
Se     130.84095144     -35.92804652      20.53566545        4        1
Se     130.84095144     -35.92804652      17.17711265        5        1
W      127.06748435     -36.00139387      18.85638905        3        1
Se     128.00812813     -34.33192561      20.53566545        4        1
Se     128.00812813     -34.33192561      17.17711265        5        1
W      124.23466104     -34.40527296      18.85638905        3        1
Se     125.17530481     -32.73580470      20.53566545        4        1
Se     125.17530481     -32.73580470      17.17711265        5        1
W      121.40183772     -32.80915205      18.85638905        3        1
Se     122.34248150     -31.13968379      20.53566545        4        1
Se     122.34248150     -31.13968379      17.17711265        5        1
W      118.56901441     -31.21303114      18.85638905        3        1
Se     119.50965818     -29.54356288      20.53566545        4        1
Se     119.50965818     -29.54356288      17.17711265        5        1
W      115.73619109     -29.61691023      18.85638905        3        1
Se     116.67683487     -27.94744197      20.53566545        4        1
Se     116.67683487     -27.94744197      17.17711265        5        1
W      112.90336778     -28.02078932      18.85638905        3        1
Se     113.84401155     -26.35132106      20.53566545        4        1
Se     113.84401155     -26.35132106      17.17711265        5        1
W      110.07054446     -26.42466841      18.85638905        3        1
Se     111.01118824     -24.75520015      20.53566545        4        1
Se     111.01118824     -24.75520015      17.17711265        5        1
W      107.23772115     -24.82854750      18.85638905        3        1
Se     108.17836492     -23.15907924      20.53566545        4        1
Se     108.17836492     -23.15907924      17.17711265        5        1
W      104.40489783     -23.23242659      18.85638905        3        1
Se     105.34554161     -21.56295833      20.53566545        4        1
Se     105.34554161     -21.56295833      17.17711265        5        1
W      101.57207452     -21.63630568      18.85638905        3        1
Se     102.51271829     -19.96683742      20.53566545        4        1
Se     102.51271829     -19.96683742      17.17711265        5        1
W       98.73925120     -20.04018477      18.85638905        3        1
Se      99.67989498     -18.37071651      20.53566545        4        1
Se      99.67989498     -18.37071651      17.17711265        5        1
W       95.90642789     -18.44406386      18.85638905        3        1
Se      96.84707166     -16.77459560      20.53566545        4        1
Se      96.84707166     -16.77459560      17.17711265        5        1
W       93.07360457     -16.84794294      18.85638905        3        1
Se      94.01424835     -15.17847469      20.53566545        4        1
Se      94.01424835     -15.17847469      17.17711265        5        1
W       90.24078126     -15.25182203      18.85638905        3        1
Se      91.18142503     -13.58235378      20.53566545        4        1
Se      91.18142503     -13.58235378      17.17711265        5        1
W       87.40795794     -13.65570112      18.85638905        3        1
Se      88.34860172     -11.98623287      20.53566545        4        1
Se      88.34860172     -11.98623287      17.17711265        5        1
W       84.57513463     -12.05958021      18.85638905        3        1
Se      85.51577840     -10.39011196      20.53566545        4        1
Se      85.51577840     -10.39011196      17.17711265        5        1
W       81.74231131     -10.46345930      18.85638905        3        1
Se      82.68295509      -8.79399104      20.53566545        4        1
Se      82.68295509      -8.79399104      17.17711265        5        1
W       78.90948800      -8.86733839      18.85638905        3        1
Se      79.85013177      -7.19787013      20.53566545        4        1
Se      79.85013177      -7.19787013      17.17711265        5        1
W       76.07666468      -7.27121748      18.85638905        3        1
Se      77.01730846      -5.60174922      20.53566545        4        1
Se      77.01730846      -5.60174922      17.17711265        5        1
W       73.24384137      -5.67509657      18.85638905        3        1
Se      74.18448514      -4.00562831      20.53566545        4        1
Se      74.18448514      -4.00562831      17.17711265        5        1
W       70.41101805      -4.07897566      18.85638905        3        1
Se      71.35166183      -2.40950740      20.53566545        4        1
Se      71.35166183      -2.40950740      17.17711265        5        1
W       67.57819474      -2.48285475      18.85638905        3        1
Se      68.51883851      -0.81338649      20.53566545        4        1
Se      68.51883851      -0.81338649      17.17711265        5        1
W      189.35546688     -67.86469649      18.85638905        3        1
Se     190.29611065     -66.19522823      20.53566545        4        1
Se     190.29611065     -66.19522823      17.17711265        5        1
W      186.52264356     -66.26857558      18.85638905        3        1
Se     187.46328734     -64.59910732      20.53566545        4        1
Se     187.46328734     -64.59910732      17.17711265        5        1
W      183.68982025     -64.67245467      18.85638905        3        1
Se     184.63046402     -63.00298641      20.53566545        4        1
Se     184.63046402     -63.00298641      17.17711265        5        1
W      180.85699693     -63.07633376      18.85638905        3        1
Se     181.79764071     -61.40686550      20.53566545        4        1
Se     181.79764071     -61.40686550      17.17711265        5        1
W      178.02417362     -61.48021285      18.85638905        3        1
Se     178.96481739     -59.81074459      20.53566545        4        1
Se     178.96481739     -59.81074459      17.17711265        5        1
W      175.19135030     -59.88409194      18.85638905        3        1
Se     176.13199408     -58.21462368      20.53566545        4        1
Se     176.13199408     -58.21462368      17.17711265        5        1
W      172.35852699     -58.28797103      18.85638905        3        1
Se     173.29917076     -56.61850277      20.53566545        4        1
Se     173.29917076     -56.61850277      17.17711265        5        1
W      169.52570367     -56.69185012      18.85638905        3        1
Se     170.46634745     -55.02238186      20.53566545        4        1
Se     170.46634745     -55.02238186      17.17711265        5        1
W      166.69288036     -55.09572921      18.85638905        3        1
Se     167.63352413     -53.42626095      20.53566545        4        1
Se     167.63352413     -53.42626095      17.17711265        5        1
W      163.86005704     -53.49960830      18.85638905        3        1
Se     164.80070082     -51.83014004      20.53566545        4        1
Se     164.80070082     -51.83014004      17.17711265        5        1
W      161.02723373     -51.90348739      18.85638905        3        1
Se     161.96787750     -50.23401913      20.53566545        4        1
Se     161.96787750     -50.23401913      17.17711265        5        1
W      158.19441041     -50.30736648      18.85638905        3        1
Se     159.13505419     -48.63789822      20.53566545        4        1
Se     159.13505419     -48.63789822      17.17711265        5        1
W      155.36158710     -48.71124557      18.85638905        3        1
Se     156.30223087     -47.04177731      20.53566545        4        1
Se     156.30223087     -47.04177731      17.17711265        5        1
W      152.52876378     -47.11512466      18.85638905        3        1
Se     153.46940756     -45.44565640      20.53566545        4        1
Se     153.46940756     -45.44565640      17.17711265        5        1
W      149.69594047     -45.51900374      18.85638905        3        1
Se     150.63658424     -43.84953549      20.53566545        4        1
Se     150.63658424     -43.84953549      17.17711265        5        1
W      146.86311715     -43.92288283      18.85638905        3        1
Se     147.80376093     -42.25341458      20.53566545        4        1
Se     147.80376093     -42.25341458      17.17711265        5        1
W      144.03029384     -42.32676192      18.85638905        3        1
Se     144.97093761     -40.65729367      20.53566545        4        1
Se     144.97093761     -40.65729367      17.17711265        5        1
W      141.19747052     -40.73064101      18.85638905        3        1
Se     142.13811430     -39.06117276      20.53566545        4        1
Se     142.13811430     -39.06117276      17.17711265        5        1
W      138.36464721     -39.13452010      18.85638905        3        1
Se     139.30529098     -37.46505185      20.53566545        4        1
Se     139.30529098     -37.46505185      17.17711265        5        1
W      135.53182389     -37.53839919      18.85638905        3        1
Se     136.47246767     -35.86893093      20.53566545        4        1
Se     136.47246767     -35.86893093      17.17711265        5        1
W      132.69900058     -35.94227828      18.85638905        3        1
Se     133.63964435     -34.27281002      20.53566545        4        1
Se     133.63964435     -34.27281002      17.17711265        5        1
W      129.86617726     -34.34615737      18.85638905        3        1
Se     130.80682104     -32.67668911      20.53566545        4        1
Se     130.80682104     -32.67668911      17.17711265        5        1
W      127.03335395     -32.75003646      18.85638905        3        1
Se     127.97399772     -31.08056820      20.53566545        4        1
Se     127.97399772     -31.08056820      17.17711265        5        1
W      124.20053063     -31.15391555      18.85638905        3        1
Se     125.14117441     -29.48444729      20.53566545        4        1
Se     125.14117441     -29.48444729      17.17711265        5        1
W      121.36770732     -29.55779464      18.85638905        3        1
Se     122.30835109     -27.88832638      20.53566545        4        1
Se     122.30835109     -27.88832638      17.17711265        5        1
W      118.53488401     -27.96167373      18.85638905        3        1
Se     119.47552778     -26.29220547      20.53566545        4        1
Se     119.47552778     -26.29220547      17.17711265        5        1
W      115.70206069     -26.36555282      18.85638905        3        1
Se     116.64270446     -24.69608456      20.53566545        4        1
Se     116.64270446     -24.69608456      17.17711265        5        1
W      112.86923738     -24.76943191      18.85638905        3        1
Se     113.80988115     -23.09996365      20.53566545        4        1
Se     113.80988115     -23.09996365      17.17711265        5        1
W      110.03641406     -23.17331100      18.85638905        3        1
Se     110.97705784     -21.50384274      20.53566545        4        1
Se     110.97705784     -21.50384274      17.17711265        5        1
W      107.20359075     -21.57719009      18.85638905        3        1
Se     108.14423452     -19.90772183      20.53566545        4        1
Se     108.14423452     -19.90772183      17.17711265        5        1
W      104.37076743     -19.98106918      18.85638905        3        1
Se     105.31141121     -18.31160092      20.53566545        4        1
Se     105.31141121     -18.31160092      17.17711265        5        1
W      101.53794412     -18.38494827      18.85638905        3        1
Se     102.47858789     -16.71548001      20.53566545        4        1
Se     102.47858789     -16.71548001      17.17711265        5        1
W       98.70512080     -16.78882736      18.85638905        3        1
Se      99.64576458     -15.11935910      20.53566545        4        1
Se      99.64576458     -15.11935910      17.17711265        5        1
W       95.87229749     -15.19270644      18.85638905        3        1
Se      96.81294126     -13.52323819      20.53566545        4        1
Se      96.81294126     -13.52323819      17.17711265        5        1
W       93.03947417     -13.59658553      18.85638905        3        1
Se      93.98011795     -11.92711728      20.53566545        4        1
Se      93.98011795     -11.92711728      17.17711265        5        1
W       90.20665086     -12.00046462      18.85638905        3        1
Se      91.14729463     -10.33099637      20.53566545        4        1
Se      91.14729463     -10.33099637      17.17711265        5        1
W       87.37382754     -10.40434371      18.85638905        3        1
Se      88.31447132      -8.73487546      20.53566545        4        1
Se      88.31447132      -8.73487546      17.17711265        5        1
W       84.54100423      -8.80822280      18.85638905        3        1
Se      85.48164800      -7.13875454      20.53566545        4        1
Se      85.48164800      -7.13875454      17.17711265        5        1
W       81.70818091      -7.21210189      18.85638905        3        1
Se      82.64882469      -5.54263363      20.53566545        4        1
Se      82.64882469      -5.54263363      17.17711265        5        1
W       78.87535760      -5.61598098      18.85638905        3        1
Se      79.81600137      -3.94651272      20.53566545        4        1
Se      79.81600137      -3.94651272      17.17711265        5        1
W       76.04253428      -4.01986007      18.85638905        3        1
Se      76.98317806      -2.35039181      20.53566545        4        1
Se      76.98317806      -2.35039181      17.17711265        5        1
W       73.20971097      -2.42373916      18.85638905        3        1
Se      74.15035474      -0.75427090      20.53566545        4        1
Se      74.15035474      -0.75427090      17.17711265        5        1
W      186.48851316     -63.01721817      18.85638905        3        1
Se     187.42915693     -61.34774991      20.53566545        4        1
Se     187.42915693     -61.34774991      17.17711265        5        1
W      183.65568985     -61.42109726      18.85638905        3        1
Se     184.59633362     -59.75162900      20.53566545        4        1
Se     184.59633362     -59.75162900      17.17711265        5        1
W      180.82286653     -59.82497635      18.85638905        3        1
Se     181.76351030     -58.15550809      20.53566545        4        1
Se     181.76351030     -58.15550809      17.17711265        5        1
W      177.99004322     -58.22885544      18.85638905        3        1
Se     178.93068699     -56.55938718      20.53566545        4        1
Se     178.93068699     -56.55938718      17.17711265        5        1
W      175.15721990     -56.63273453      18.85638905        3        1
Se     176.09786368     -54.96326627      20.53566545        4        1
Se     176.09786368     -54.96326627      17.17711265        5        1
W      172.32439659     -55.03661362      18.85638905        3        1
Se     173.26504036     -53.36714536      20.53566545        4        1
Se     173.26504036     -53.36714536      17.17711265        5        1
W      169.49157327     -53.44049271      18.85638905        3        1
Se     170.43221705     -51.77102445      20.53566545        4        1
Se     170.43221705     -51.77102445      17.17711265        5        1
W      166.65874996     -51.84437180      18.85638905        3        1
Se     167.59939373     -50.17490354      20.53566545        4        1
Se     167.59939373     -50.17490354      17.17711265        5        1
W      163.82592664     -50.24825089      18.85638905        3        1
Se     164.76657042     -48.57878263      20.53566545        4        1
Se     164.76657042     -48.57878263      17.17711265        5        1
W      160.99310333     -48.65212998      18.85638905        3        1
Se     161.93374710     -46.98266172      20.53566545        4        1
Se     161.93374710     -46.98266172      17.17711265        5        1
W      158.16028001     -47.05600907      18.85638905        3        1
Se     159.10092379     -45.38654081      20.53566545        4        1
Se     159.10092379     -45.38654081      17.17711265        5        1
W      155.32745670     -45.45988816      18.85638905        3        1
Se     156.26810047     -43.79041990      20.53566545        4        1
Se     156.26810047     -43.79041990      17.17711265        5        1
W      152.49463338     -43.86376725      18.85638905        3        1
Se     153.43527716     -42.19429899      20.53566545        4        1
Se     153.43527716     -42.19429899      17.17711265        5        1
W      149.66181007     -42.26764633      18.85638905        3        1
Se     150.60245384     -40.59817808      20.53566545        4        1
Se     150.60245384     -40.59817808      17.17711265        5        1
W      146.82898675     -40.67152542      18.85638905        3        1
Se     147.76963053     -39.00205717      20.53566545        4        1
Se     147.76963053     -39.00205717      17.17711265        5        1
W      143.99616344     -39.07540451      18.85638905        3        1
Se     144.93680721     -37.40593626      20.53566545        4        1
Se     144.93680721     -37.40593626      17.17711265        5        1
W      141.16334012     -37.47928360      18.85638905        3        1
Se     142.10398390     -35.80981535      20.53566545        4        1
Se     142.10398390     -35.80981535      17.17711265        5        1
W      138.33051681     -35.88316269      18.85638905        3        1
Se     139.27116058     -34.21369443      20.53566545        4        1
Se     139.27116058     -34.21369443      17.17711265        5        1
W      135.49769349     -34.28704178      18.85638905        3        1
Se     136.43833727     -32.61757352      20.53566545        4        1
Se     136.43833727     -32.61757352      17.17711265        5        1
W      132.66487018     -32.69092087      18.85638905        3        1
Se     133.60551395     -31.02145261      20.53566545        4        1
Se     133.60551395     -31.02145261      17.17711265        5        1
W      129.83204686     -31.09479996      18.85638905        3        1
Se     130.77269064     -29.42533170      20.53566545        4        1
Se     130.77269064     -29.42533170      17.17711265        5        1
W      126.99922355     -29.49867905      18.85638905        3        1
Se     127.93986732     -27.82921079      20.53566545        4        1
Se     127.93986732     -27.82921079      17.17711265        5        1
W      124.16640023     -27.90255814      18.85638905        3        1
Se     125.10704401     -26.23308988      20.53566545        4        1
Se     125.10704401     -26.23308988      17.17711265        5        1
W      121.33357692     -26.30643723      18.85638905        3        1
Se     122.27422069     -24.63696897      20.53566545        4        1
Se     122.27422069     -24.63696897      17.17711265        5        1
W      118.50075360     -24.71031632      18.85638905        3        1
Se     119.44139738     -23.04084806      20.53566545        4        1
Se     119.44139738     -23.04084806      17.17711265        5        1
W      115.66793029     -23.11419541      18.85638905        3        1
Se     116.60857406     -21.44472715      20.53566545        4        1
Se     116.60857406     -21.44472715      17.17711265        5        1
W      112.83510697     -21.51807450      18.85638905        3        1
Se     113.77575075     -19.84860624      20.53566545        4        1
Se     113.77575075     -19.84860624      17.17711265        5        1
W      110.00228366     -19.92195359      18.85638905        3        1
Se     110.94292743     -18.25248533      20.53566545        4        1
Se     110.94292743     -18.25248533      17.17711265        5        1
W      107.16946034     -18.32583268      18.85638905        3        1
Se     108.11010412     -16.65636442      20.53566545        4        1
Se     108.11010412     -16.65636442      17.17711265        5        1
W      104.33663703     -16.72971177      18.85638905        3        1
Se     105.27728080     -15.06024351      20.53566545        4        1
Se     105.27728080     -15.06024351      17.17711265        5        1
W      101.50381371     -15.13359086      18.85638905        3        1
Se     102.44445749     -13.46412260      20.53566545        4        1
Se     102.44445749     -13.46412260      17.17711265        5        1
W       98.67099040     -13.53746994      18.85638905        3        1
Se      99.61163417     -11.86800169      20.53566545        4        1
Se      99.61163417     -11.86800169      17.17711265        5        1
W       95.83816709     -11.94134903      18.85638905        3        1
Se      96.77881086     -10.27188078      20.53566545        4        1
Se      96.77881086     -10.27188078      17.17711265        5        1
W       93.00534377     -10.34522812      18.85638905        3        1
Se      93.94598754      -8.67575987      20.53566545        4        1
Se      93.94598754      -8.67575987      17.17711265        5        1
W       90.17252046      -8.74910721      18.85638905        3        1
Se      91.11316423      -7.07963896      20.53566545        4        1
Se      91.11316423      -7.07963896      17.17711265        5        1
W       87.33969714      -7.15298630      18.85638905        3        1
Se      88.28034092      -5.48351805      20.53566545        4        1
Se      88.28034092      -5.48351805      17.17711265        5        1
W       84.50687383      -5.55686539      18.85638905        3        1
Se      85.44751760      -3.88739713      20.53566545        4        1
Se      85.44751760      -3.88739713      17.17711265        5        1
W       81.67405051      -3.96074448      18.85638905        3        1
Se      82.61469429      -2.29127622      20.53566545        4        1
Se      82.61469429      -2.29127622      17.17711265        5        1
W       78.84122720      -2.36462357      18.85638905        3        1
Se      79.78187097      -0.69515531      20.53566545        4        1
Se      79.78187097      -0.69515531      17.17711265        5        1
W      183.62155944     -58.16973985      18.85638905        3        1
Se     184.56220322     -56.50027159      20.53566545        4        1
Se     184.56220322     -56.50027159      17.17711265        5        1
W      180.78873613     -56.57361894      18.85638905        3        1
Se     181.72937990     -54.90415068      20.53566545        4        1
Se     181.72937990     -54.90415068      17.17711265        5        1
W      177.95591281     -54.97749803      18.85638905        3        1
Se     178.89655659     -53.30802977      20.53566545        4        1
Se     178.89655659     -53.30802977      17.17711265        5        1
W      175.12308950     -53.38137712      18.85638905        3        1
Se     176.06373327     -51.71190886      20.53566545        4        1
Se     176.06373327     -51.71190886      17.17711265        5        1
W      172.29026618     -51.78525621      18.85638905        3        1
Se     173.23090996     -50.11578795      20.53566545        4        1
Se     173.23090996     -50.11578795      17.17711265        5        1
W      169.45744287     -50.18913530      18.85638905        3        1
Se     170.39808664     -48.51966704      20.53566545        4        1
Se     170.39808664     -48.51966704      17.17711265        5        1
W      166.62461955     -48.59301439      18.85638905        3        1
Se     167.56526333     -46.92354613      20.53566545        4        1
Se     167.56526333     -46.92354613      17.17711265        5        1
W      163.79179624     -46.99689348      18.85638905        3        1
Se     164.73244001     -45.32742522      20.53566545        4        1
Se     164.73244001     -45.32742522      17.17711265        5        1
W      160.95897293     -45.40077257      18.85638905        3        1
Se     161.89961670     -43.73130431      20.53566545        4        1
Se     161.89961670     -43.73130431      17.17711265        5        1
W      158.12614961     -43.80465166      18.85638905        3        1
Se     159.06679338     -42.13518340      20.53566545        4        1
Se     159.06679338     -42.13518340      17.17711265        5        1
W      155.29332630     -42.20853075      18.85638905        3        1
Se     156.23397007     -40.53906249      20.53566545        4        1
Se     156.23397007     -40.53906249      17.17711265        5        1
W      152.46050298     -40.61240983      18.85638905        3        1
Se     153.40114676     -38.94294158      20.53566545        4        1
Se     153.40114676     -38.94294158      17.17711265        5        1
W      149.62767967     -39.01628892      18.85638905        3        1
Se     150.56832344     -37.34682067      20.53566545        4        1
Se     150.56832344     -37.34682067      17.17711265        5        1
W      146.79485635     -37.42016801      18.85638905        3        1
Se     147.73550013     -35.75069976      20.53566545        4        1
Se     147.73550013     -35.75069976      17.17711265        5        1
W      143.96203304     -35.82404710      18.85638905        3        1
Se     144.90267681     -34.15457885      20.53566545        4        1
Se     144.90267681     -34.15457885      17.17711265        5        1
W      141.12920972     -34.22792619      18.85638905        3        1
Se     142.06985350     -32.55845793      20.53566545        4        1
Se     142.06985350     -32.55845793      17.17711265        5        1
W      138.29638641     -32.63180528      18.85638905        3        1
Se     139.23703018     -30.96233702      20.53566545        4        1
Se     139.23703018     -30.96233702      17.17711265        5        1
W      135.46356309     -31.03568437      18.85638905        3        1
Se     136.40420687     -29.36621611      20.53566545        4        1
Se     136.40420687     -29.36621611      17.17711265        5        1
W      132.63073978     -29.43956346      18.85638905        3        1
Se     133.57138355     -27.77009520      20.53566545        4        1
Se     133.57138355     -27.77009520      17.17711265        5        1
W      129.79791646     -27.84344255      18.85638905        3        1
Se     130.73856024     -26.17397429      20.53566545        4        1
Se     130.73856024     -26.17397429      17.17711265        5        1
W      126.96509315     -26.24732164      18.85638905        3        1
Se     127.90573692     -24.57785338      20.53566545        4        1
Se     127.90573692     -24.57785338      17.17711265        5        1
W      124.13226983     -24.65120073      18.85638905        3        1
Se     125.07291361     -22.98173247      20.53566545        4        1
Se     125.07291361     -22.98173247      17.17711265        5        1
W      121.29944652     -23.05507982      18.85638905        3        1
Se     122.24009029     -21.38561156      20.53566545        4        1
Se     122.24009029     -21.38561156      17.17711265        5        1
W      118.46662320     -21.45895891      18.85638905        3        1
Se     119.40726698     -19.78949065      20.53566545        4        1
Se     119.40726698     -19.78949065      17.17711265        5        1
W      115.63379989     -19.86283800      18.85638905        3        1
Se     116.57444366     -18.19336974      20.53566545        4        1
Se     116.57444366     -18.19336974      17.17711265        5        1
W      112.80097657     -18.26671709      18.85638905        3        1
Se     113.74162035     -16.59724883      20.53566545        4        1
Se     113.74162035     -16.59724883      17.17711265        5        1
W      109.96815326     -16.67059618      18.85638905        3        1
Se     110.90879703     -15.00112792      20.53566545        4        1
Se     110.90879703     -15.00112792      17.17711265        5        1
W      107.13532994     -15.07447527      18.85638905        3        1
Se     108.07597372     -13.40500701      20.53566545        4        1
Se     108.07597372     -13.40500701      17.17711265        5        1
W      104.30250663     -13.47835436      18.85638905        3        1
Se     105.24315040     -11.80888610      20.53566545        4        1
Se     105.24315040     -11.80888610      17.17711265        5        1
W      101.46968331     -11.88223345      18.85638905        3        1
Se     102.41032709     -10.21276519      20.53566545        4        1
Se     102.41032709     -10.21276519      17.17711265        5        1
W       98.63686000     -10.28611253      18.85638905        3        1
Se      99.57750377      -8.61664428      20.53566545        4        1
Se      99.57750377      -8.61664428      17.17711265        5        1
W       95.80403668      -8.68999162      18.85638905        3        1
Se      96.74468046      -7.02052337      20.53566545        4        1
Se      96.74468046      -7.02052337      17.17711265        5        1
W       92.97121337      -7.09387071      18.85638905        3        1
Se      93.91185714      -5.42440246      20.53566545        4        1
Se      93.91185714      -5.42440246      17.17711265        5        1
W       90.13839005      -5.49774980      18.85638905        3        1
Se      91.07903383      -3.82828155      20.53566545        4        1
Se      91.07903383      -3.82828155      17.17711265        5        1
W       87.30556674      -3.90162889      18.85638905        3        1
Se      88.24621051      -2.23216063      20.53566545        4        1
Se      88.24621051      -2.23216063      17.17711265        5        1
W       84.47274342      -2.30550798      18.85638905        3        1
Se      85.41338720      -0.63603972      20.53566545        4        1
Se      85.41338720      -0.63603972      17.17711265        5        1
W      180.75460573     -53.32226153      18.85638905        3        1
Se     181.69524950     -51.65279327      20.53566545        4        1
Se     181.69524950     -51.65279327      17.17711265        5        1
W      177.92178241     -51.72614062      18.85638905        3        1
Se     178.86242619     -50.05667236      20.53566545        4        1
Se     178.86242619     -50.05667236      17.17711265        5        1
W      175.08895910     -50.13001971      18.85638905        3        1
Se     176.02960287     -48.46055145      20.53566545        4        1
Se     176.02960287     -48.46055145      17.17711265        5        1
W      172.25613578     -48.53389880      18.85638905        3        1
Se     173.19677956     -46.86443054      20.53566545        4        1
Se     173.19677956     -46.86443054      17.17711265        5        1
W      169.42331247     -46.93777789      18.85638905        3        1
Se     170.36395624     -45.26830963      20.53566545        4        1
Se     170.36395624     -45.26830963      17.17711265        5        1
W      166.59048915     -45.34165698      18.85638905        3        1
Se     167.53113293     -43.67218872      20.53566545        4        1
Se     167.53113293     -43.67218872      17.17711265        5        1
W      163.75766584     -43.74553607      18.85638905        3        1
Se     164.69830961     -42.07606781      20.53566545        4        1
Se     164.69830961     -42.07606781      17.17711265        5        1
W      160.92484252     -42.14941516      18.85638905        3        1
Se     161.86548630     -40.47994690      20.53566545        4        1
Se     161.86548630     -40.47994690      17.17711265        5        1
W      158.09201921     -40.55329425      18.85638905        3        1
Se     159.03266298     -38.88382599      20.53566545        4        1
Se     159.03266298     -38.88382599      17.17711265        5        1
W      155.25919589     -38.95717333      18.85638905        3        1
Se     156.19983967     -37.28770508      20.53566545        4        1
Se     156.19983967     -37.28770508      17.17711265        5        1
W      152.42637258     -37.36105242      18.85638905        3        1
Se     153.36701635     -35.69158417      20.53566545        4        1
Se     153.36701635     -35.69158417      17.17711265        5        1
W      149.59354926     -35.76493151      18.85638905        3        1
Se     150.53419304     -34.09546326      20.53566545        4        1
Se     150.53419304     -34.09546326      17.17711265        5        1
W      146.76072595     -34.16881060      18.85638905        3        1
Se     147.70136972     -32.49934235      20.53566545        4        1
Se     147.70136972     -32.49934235      17.17711265        5        1
W      143.92790263     -32.57268969      18.85638905        3        1
Se     144.86854641     -30.90322144      20.53566545        4        1
Se     144.86854641     -30.90322144      17.17711265        5        1
W      141.09507932     -30.97656878      18.85638905        3        1
Se     142.03572309     -29.30710052      20.53566545        4        1
Se     142.03572309     -29.30710052      17.17711265        5        1
W      138.26225601     -29.38044787      18.85638905        3        1
Se     139.20289978     -27.71097961      20.53566545        4        1
Se     139.20289978     -27.71097961      17.17711265        5        1
W      135.42943269     -27.78432696      18.85638905        3        1
Se     136.37007646     -26.11485870      20.53566545        4        1
Se     136.37007646     -26.11485870      17.17711265        5        1
W      132.59660938     -26.18820605      18.85638905        3        1
Se     133.53725315     -24.51873779      20.53566545        4        1
Se     133.53725315     -24.51873779      17.17711265        5        1
W      129.76378606     -24.59208514      18.85638905        3        1
Se     130.70442983     -22.92261688      20.53566545        4        1
Se     130.70442983     -22.92261688      17.17711265        5        1
W      126.93096275     -22.99596423      18.85638905        3        1
Se     127.87160652     -21.32649597      20.53566545        4        1
Se     127.87160652     -21.32649597      17.17711265        5        1
W      124.09813943     -21.39984332      18.85638905        3        1
Se     125.03878321     -19.73037506      20.53566545        4        1
Se     125.03878321     -19.73037506      17.17711265        5        1
W      121.26531612     -19.80372241      18.85638905        3        1
Se     122.20595989     -18.13425415      20.53566545        4        1
Se     122.20595989     -18.13425415      17.17711265        5        1
W      118.43249280     -18.20760150      18.85638905        3        1
Se     119.37313658     -16.53813324      20.53566545        4        1
Se     119.37313658     -16.53813324      17.17711265        5        1
W      115.59966949     -16.61148059      18.85638905        3        1
Se     116.54031326     -14.94201233      20.53566545        4        1
Se     116.54031326     -14.94201233      17.17711265        5        1
W      112.76684617     -15.01535968      18.85638905        3        1
Se     113.70748995     -13.34589142      20.53566545        4        1
Se     113.70748995     -13.34589142      17.17711265        5        1
W      109.93402286     -13.41923877      18.85638905        3        1
Se     110.87466663     -11.74977051      20.53566545        4        1
Se     110.87466663     -11.74977051      17.17711265        5        1
W      107.10119954     -11.82311786      18.85638905        3        1
Se     108.04184332     -10.15364960      20.53566545        4        1
Se     108.04184332     -10.15364960      17.17711265        5        1
W      104.26837623     -10.22699695      18.85638905        3        1
Se     105.20902000      -8.55752869      20.53566545        4        1
Se     105.20902000      -8.55752869      17.17711265        5        1
W      101.43555291      -8.63087603      18.85638905        3        1
Se     102.37619669      -6.96140778      20.53566545        4        1
Se     102.37619669      -6.96140778      17.17711265        5        1
W       98.60272960      -7.03475512      18.85638905        3        1
Se      99.54337337      -5.36528687      20.53566545        4        1
Se      99.54337337      -5.36528687      17.17711265        5        1
W       95.76990628      -5.43863421      18.85638905        3        1
Se      96.71055006      -3.76916596      20.53566545        4        1
Se      96.71055006      -3.76916596      17.17711265        5        1
W       92.93708297      -3.84251330      18.85638905        3        1
Se      93.87772674      -2.17304505      20.53566545        4        1
Se      93.87772674      -2.17304505      17.17711265        5        1
W       90.10425965      -2.24639239      18.85638905        3        1
Se      91.04490343      -0.57692413      20.53566545        4        1
Se      91.04490343      -0.57692413      17.17711265        5        1
W      177.88765201     -48.47478321      18.85638905        3        1
Se     178.82829579     -46.80531495      20.53566545        4        1
Se     178.82829579     -46.80531495      17.17711265        5        1
W      175.05482870     -46.87866230      18.85638905        3        1
Se     175.99547247     -45.20919404      20.53566545        4        1
Se     175.99547247     -45.20919404      17.17711265        5        1
W      172.22200538     -45.28254139      18.85638905        3        1
Se     173.16264916     -43.61307313      20.53566545        4        1
Se     173.16264916     -43.61307313      17.17711265        5        1
W      169.38918207     -43.68642048      18.85638905        3        1
Se     170.32982584     -42.01695222      20.53566545        4        1
Se     170.32982584     -42.01695222      17.17711265        5        1
W      166.55635875     -42.09029957      18.85638905        3        1
Se     167.49700253     -40.42083131      20.53566545        4        1
Se     167.49700253     -40.42083131      17.17711265        5        1
W      163.72353544     -40.49417866      18.85638905        3        1
Se     164.66417921     -38.82471040      20.53566545        4        1
Se     164.66417921     -38.82471040      17.17711265        5        1
W      160.89071212     -38.89805775      18.85638905        3        1
Se     161.83135590     -37.22858949      20.53566545        4        1
Se     161.83135590     -37.22858949      17.17711265        5        1
W      158.05788881     -37.30193684      18.85638905        3        1
Se     158.99853258     -35.63246858      20.53566545        4        1
Se     158.99853258     -35.63246858      17.17711265        5        1
W      155.22506549     -35.70581592      18.85638905        3        1
Se     156.16570927     -34.03634767      20.53566545        4        1
Se     156.16570927     -34.03634767      17.17711265        5        1
W      152.39224218     -34.10969501      18.85638905        3        1
Se     153.33288595     -32.44022676      20.53566545        4        1
Se     153.33288595     -32.44022676      17.17711265        5        1
W      149.55941886     -32.51357410      18.85638905        3        1
Se     150.50006264     -30.84410585      20.53566545        4        1
Se     150.50006264     -30.84410585      17.17711265        5        1
W      146.72659555     -30.91745319      18.85638905        3        1
Se     147.66723932     -29.24798494      20.53566545        4        1
Se     147.66723932     -29.24798494      17.17711265        5        1
W      143.89377223     -29.32133228      18.85638905        3        1
Se     144.83441601     -27.65186402      20.53566545        4        1
Se     144.83441601     -27.65186402      17.17711265        5        1
W      141.06094892     -27.72521137      18.85638905        3        1
Se     142.00159269     -26.05574311      20.53566545        4        1
Se     142.00159269     -26.05574311      17.17711265        5        1
W      138.22812560     -26.12909046      18.85638905        3        1
Se     139.16876938     -24.45962220      20.53566545        4        1
Se     139.16876938     -24.45962220      17.17711265        5        1
W      135.39530229     -24.53296955      18.85638905        3        1
Se     136.33594606     -22.86350129      20.53566545        4        1
Se     136.33594606     -22.86350129      17.17711265        5        1
W      132.56247897     -22.93684864      18.85638905        3        1
Se     133.50312275     -21.26738038      20.53566545        4        1
Se     133.50312275     -21.26738038      17.17711265        5        1
W      129.72965566     -21.34072773      18.85638905        3        1
Se     130.67029943     -19.67125947      20.53566545        4        1
Se     130.67029943     -19.67125947      17.17711265        5        1
W      126.89683234     -19.74460682      18.85638905        3        1
Se     127.83747612     -18.07513856      20.53566545        4        1
Se     127.83747612     -18.07513856      17.17711265        5        1
W      124.06400903     -18.14848591      18.85638905        3        1
Se     125.00465280     -16.47901765      20.53566545        4        1
Se     125.00465280     -16.47901765      17.17711265        5        1
W      121.23118571     -16.55236500      18.85638905        3        1
Se     122.17182949     -14.88289674      20.53566545        4        1
Se     122.17182949     -14.88289674      17.17711265        5        1
W      118.39836240     -14.95624409      18.85638905        3        1
Se     119.33900617     -13.28677583      20.53566545        4        1
Se     119.33900617     -13.28677583      17.17711265        5        1
W      115.56553908     -13.36012318      18.85638905        3        1
Se     116.50618286     -11.69065492      20.53566545        4        1
Se     116.50618286     -11.69065492      17.17711265        5        1
W      112.73271577     -11.76400227      18.85638905        3        1
Se     113.67335954     -10.09453401      20.53566545        4        1
Se     113.67335954     -10.09453401      17.17711265        5        1
W      109.89989246     -10.16788136      18.85638905        3        1
Se     110.84053623      -8.49841310      20.53566545        4        1
Se     110.84053623      -8.49841310      17.17711265        5        1
W      107.06706914      -8.57176045      18.85638905        3        1
Se     108.00771291      -6.90229219      20.53566545        4        1
Se     108.00771291      -6.90229219      17.17711265        5        1
W      104.23424583      -6.97563953      18.85638905        3        1
Se     105.17488960      -5.30617128      20.53566545        4        1
Se     105.17488960      -5.30617128      17.17711265        5        1
W      101.40142251      -5.37951862      18.85638905        3        1
Se     102.34206629      -3.71005037      20.53566545        4        1
Se     102.34206629      -3.71005037      17.17711265        5        1
W       98.56859920      -3.78339771      18.85638905        3        1
Se      99.50924297      -2.11392946      20.53566545        4        1
Se      99.50924297      -2.11392946      17.17711265        5        1
W       95.73577588      -2.18727680      18.85638905        3        1
Se      96.67641966      -0.51780855      20.53566545        4        1
Se      96.67641966      -0.51780855      17.17711265        5        1
W      175.02069830     -43.62730489      18.85638905        3        1
Se     175.96134207     -41.95783663      20.53566545        4        1
Se     175.96134207     -41.95783663      17.17711265        5        1
W      172.18787498     -42.03118398      18.85638905        3        1
Se     173.12851875     -40.36171572      20.53566545        4        1
Se     173.12851875     -40.36171572      17.17711265        5        1
W      169.35505167     -40.43506307      18.85638905        3        1
Se     170.29569544     -38.76559481      20.53566545        4        1
Se     170.29569544     -38.76559481      17.17711265        5        1
W      166.52222835     -38.83894216      18.85638905        3        1
Se     167.46287213     -37.16947390      20.53566545        4        1
Se     167.46287213     -37.16947390      17.17711265        5        1
W      163.68940504     -37.24282125      18.85638905        3        1
Se     164.63004881     -35.57335299      20.53566545        4        1
Se     164.63004881     -35.57335299      17.17711265        5        1
W      160.85658172     -35.64670034      18.85638905        3        1
Se     161.79722550     -33.97723208      20.53566545        4        1
Se     161.79722550     -33.97723208      17.17711265        5        1
W      158.02375841     -34.05057942      18.85638905        3        1
Se     158.96440218     -32.38111117      20.53566545        4        1
Se     158.96440218     -32.38111117      17.17711265        5        1
W      155.19093509     -32.45445851      18.85638905        3        1
Se     156.13157887     -30.78499026      20.53566545        4        1
Se     156.13157887     -30.78499026      17.17711265        5        1
W      152.35811178     -30.85833760      18.85638905        3        1
Se     153.29875555     -29.18886935      20.53566545        4        1
Se     153.29875555     -29.18886935      17.17711265        5        1
W      149.52528846     -29.26221669      18.85638905        3        1
Se     150.46593224     -27.59274844      20.53566545        4        1
Se     150.46593224     -27.59274844      17.17711265        5        1
W      146.69246515     -27.66609578      18.85638905        3        1
Se     147.63310892     -25.99662752      20.53566545        4        1
Se     147.63310892     -25.99662752      17.17711265        5        1
W      143.85964183     -26.06997487      18.85638905        3        1
Se     144.80028561     -24.40050661      20.53566545        4        1
Se     144.80028561     -24.40050661      17.17711265        5        1
W      141.02681852     -24.47385396      18.85638905        3        1
Se     141.96746229     -22.80438570      20.53566545        4        1
Se     141.96746229     -22.80438570      17.17711265        5        1
W      138.19399520     -22.87773305      18.85638905        3        1
Se     139.13463898     -21.20826479      20.53566545        4        1
Se     139.13463898     -21.20826479      17.17711265        5        1
W      135.36117189     -21.28161214      18.85638905        3        1
Se     136.30181566     -19.61214388      20.53566545        4        1
Se     136.30181566     -19.61214388      17.17711265        5        1
W      132.52834857     -19.68549123      18.85638905        3        1
Se     133.46899235     -18.01602297      20.53566545        4        1
Se     133.46899235     -18.01602297      17.17711265        5        1
W      129.69552526     -18.08937032      18.85638905        3        1
Se     130.63616903     -16.41990206      20.53566545        4        1
Se     130.63616903     -16.41990206      17.17711265        5        1
W      126.86270194     -16.49324941      18.85638905        3        1
Se     127.80334572     -14.82378115      20.53566545        4        1
Se     127.80334572     -14.82378115      17.17711265        5        1
W      124.02987863     -14.89712850      18.85638905        3        1
Se     124.97052240     -13.22766024      20.53566545        4        1
Se     124.97052240     -13.22766024      17.17711265        5        1
W      121.19705531     -13.30100759      18.85638905        3        1
Se     122.13769909     -11.63153933      20.53566545        4        1
Se     122.13769909     -11.63153933      17.17711265        5        1
W      118.36423200     -11.70488668      18.85638905        3        1
Se     119.30487577     -10.03541842      20.53566545        4        1
Se     119.30487577     -10.03541842      17.17711265        5        1
W      115.53140868     -10.10876577      18.85638905        3        1
Se     116.47205246      -8.43929751      20.53566545        4        1
Se     116.47205246      -8.43929751      17.17711265        5        1
W      112.69858537      -8.51264486      18.85638905        3        1
Se     113.63922914      -6.84317660      20.53566545        4        1
Se     113.63922914      -6.84317660      17.17711265        5        1
W      109.86576205      -6.91652395      18.85638905        3        1
Se     110.80640583      -5.24705569      20.53566545        4        1
Se     110.80640583      -5.24705569      17.17711265        5        1
W      107.03293874      -5.32040304      18.85638905        3        1
Se     107.97358251      -3.65093478      20.53566545        4        1
Se     107.97358251      -3.65093478      17.17711265        5        1
W      104.20011542      -3.72428212      18.85638905        3        1
Se     105.14075920      -2.05481387      20.53566545        4        1
Se     105.14075920      -2.05481387      17.17711265        5        1
W      101.36729211      -2.12816121      18.85638905        3        1
Se     102.30793588      -0.45869296      20.53566545        4        1
Se     102.30793588      -0.45869296      17.17711265        5        1
W      172.15374458     -38.77982657      18.85638905        3        1
Se     173.09438835     -37.11035831      20.53566545        4        1
Se     173.09438835     -37.11035831      17.17711265        5        1
W      169.32092126     -37.18370566      18.85638905        3        1
Se     170.26156504     -35.51423740      20.53566545        4        1
Se     170.26156504     -35.51423740      17.17711265        5        1
W      166.48809795     -35.58758475      18.85638905        3        1
Se     167.42874172     -33.91811649      20.53566545        4        1
Se     167.42874172     -33.91811649      17.17711265        5        1
W      163.65527463     -33.99146384      18.85638905        3        1
Se     164.59591841     -32.32199558      20.53566545        4        1
Se     164.59591841     -32.32199558      17.17711265        5        1
W      160.82245132     -32.39534292      18.85638905        3        1
Se     161.76309509     -30.72587467      20.53566545        4        1
Se     161.76309509     -30.72587467      17.17711265        5        1
W      157.98962800     -30.79922201      18.85638905        3        1
Se     158.93027178     -29.12975376      20.53566545        4        1
Se     158.93027178     -29.12975376      17.17711265        5        1
W      155.15680469     -29.20310110      18.85638905        3        1
Se     156.09744846     -27.53363285      20.53566545        4        1
Se     156.09744846     -27.53363285      17.17711265        5        1
W      152.32398138     -27.60698019      18.85638905        3        1
Se     153.26462515     -25.93751194      20.53566545        4        1
Se     153.26462515     -25.93751194      17.17711265        5        1
W      149.49115806     -26.01085928      18.85638905        3        1
Se     150.43180183     -24.34139103      20.53566545        4        1
Se     150.43180183     -24.34139103      17.17711265        5        1
W      146.65833475     -24.41473837      18.85638905        3        1
Se     147.59897852     -22.74527011      20.53566545        4        1
Se     147.59897852     -22.74527011      17.17711265        5        1
W      143.82551143     -22.81861746      18.85638905        3        1
Se     144.76615520     -21.14914920      20.53566545        4        1
Se     144.76615520     -21.14914920      17.17711265        5        1
W      140.99268812     -21.22249655      18.85638905        3        1
Se     141.93333189     -19.55302829      20.53566545        4        1
Se     141.93333189     -19.55302829      17.17711265        5        1
W      138.15986480     -19.62637564      18.85638905        3        1
Se     139.10050858     -17.95690738      20.53566545        4        1
Se     139.10050858     -17.95690738      17.17711265        5        1
W      135.32704149     -18.03025473      18.85638905        3        1
Se     136.26768526     -16.36078647      20.53566545        4        1
Se     136.26768526     -16.36078647      17.17711265        5        1
W      132.49421817     -16.43413382      18.85638905        3        1
Se     133.43486195     -14.76466556      20.53566545        4        1
Se     133.43486195     -14.76466556      17.17711265        5        1
W      129.66139486     -14.83801291      18.85638905        3        1
Se     130.60203863     -13.16854465      20.53566545        4        1
Se     130.60203863     -13.16854465      17.17711265        5        1
W      126.82857154     -13.24189200      18.85638905        3        1
Se     127.76921532     -11.57242374      20.53566545        4        1
Se     127.76921532     -11.57242374      17.17711265        5        1
W      123.99574823     -11.64577109      18.85638905        3        1
Se     124.93639200      -9.97630283      20.53566545        4        1
Se     124.93639200      -9.97630283      17.17711265        5        1
W      121.16292491     -10.04965018      18.85638905        3        1
Se     122.10356869      -8.38018192      20.53566545        4        1
Se     122.10356869      -8.38018192      17.17711265        5        1
W      118.33010160      -8.45352927      18.85638905        3        1
Se     119.27074537      -6.78406101      20.53566545        4        1
Se     119.27074537      -6.78406101      17.17711265        5        1
W      115.49727828      -6.85740836      18.85638905        3        1
Se     116.43792206      -5.18794010      20.53566545        4        1
Se     116.43792206      -5.18794010      17.17711265        5        1
W      112.66445497      -5.26128745      18.85638905        3        1
Se     113.60509874      -3.59181919      20.53566545        4        1
Se     113.60509874      -3.59181919      17.17711265        5        1
W      109.83163165      -3.66516654      18.85638905        3        1
Se     110.77227543      -1.99569828      20.53566545        4        1
Se     110.77227543      -1.99569828      17.17711265        5        1
W      106.99880834      -2.06904562      18.85638905        3        1
Se     107.93945211      -0.39957737      20.53566545        4        1
Se     107.93945211      -0.39957737      17.17711265        5        1
W      169.28679086     -33.93234825      18.85638905        3        1
Se     170.22743464     -32.26287999      20.53566545        4        1
Se     170.22743464     -32.26287999      17.17711265        5        1
W      166.45396755     -32.33622734      18.85638905        3        1
Se     167.39461132     -30.66675908      20.53566545        4        1
Se     167.39461132     -30.66675908      17.17711265        5        1
W      163.62114423     -30.74010643      18.85638905        3        1
Se     164.56178801     -29.07063817      20.53566545        4        1
Se     164.56178801     -29.07063817      17.17711265        5        1
W      160.78832092     -29.14398551      18.85638905        3        1
Se     161.72896469     -27.47451726      20.53566545        4        1
Se     161.72896469     -27.47451726      17.17711265        5        1
W      157.95549760     -27.54786460      18.85638905        3        1
Se     158.89614138     -25.87839635      20.53566545        4        1
Se     158.89614138     -25.87839635      17.17711265        5        1
W      155.12267429     -25.95174369      18.85638905        3        1
Se     156.06331806     -24.28227544      20.53566545        4        1
Se     156.06331806     -24.28227544      17.17711265        5        1
W      152.28985097     -24.35562278      18.85638905        3        1
Se     153.23049475     -22.68615453      20.53566545        4        1
Se     153.23049475     -22.68615453      17.17711265        5        1
W      149.45702766     -22.75950187      18.85638905        3        1
Se     150.39767143     -21.09003361      20.53566545        4        1
Se     150.39767143     -21.09003361      17.17711265        5        1
W      146.62420434     -21.16338096      18.85638905        3        1
Se     147.56484812     -19.49391270      20.53566545        4        1
Se     147.56484812     -19.49391270      17.17711265        5        1
W      143.79138103     -19.56726005      18.85638905        3        1
Se     144.73202480     -17.89779179      20.53566545        4        1
Se     144.73202480     -17.89779179      17.17711265        5        1
W      140.95855771     -17.97113914      18.85638905        3        1
Se     141.89920149     -16.30167088      20.53566545        4        1
Se     141.89920149     -16.30167088      17.17711265        5        1
W      138.12573440     -16.37501823      18.85638905        3        1
Se     139.06637817     -14.70554997      20.53566545        4        1
Se     139.06637817     -14.70554997      17.17711265        5        1
W      135.29291108     -14.77889732      18.85638905        3        1
Se     136.23355486     -13.10942906      20.53566545        4        1
Se     136.23355486     -13.10942906      17.17711265        5        1
W      132.46008777     -13.18277641      18.85638905        3        1
Se     133.40073154     -11.51330815      20.53566545        4        1
Se     133.40073154     -11.51330815      17.17711265        5        1
W      129.62726445     -11.58665550      18.85638905        3        1
Se     130.56790823      -9.91718724      20.53566545        4        1
Se     130.56790823      -9.91718724      17.17711265        5        1
W      126.79444114      -9.99053459      18.85638905        3        1
Se     127.73508491      -8.32106633      20.53566545        4        1
Se     127.73508491      -8.32106633      17.17711265        5        1
W      123.96161783      -8.39441368      18.85638905        3        1
Se     124.90226160      -6.72494542      20.53566545        4        1
Se     124.90226160      -6.72494542      17.17711265        5        1
W      121.12879451      -6.79829277      18.85638905        3        1
Se     122.06943828      -5.12882451      20.53566545        4        1
Se     122.06943828      -5.12882451      17.17711265        5        1
W      118.29597120      -5.20217186      18.85638905        3        1
Se     119.23661497      -3.53270360      20.53566545        4        1
Se     119.23661497      -3.53270360      17.17711265        5        1
W      115.46314788      -3.60605095      18.85638905        3        1
Se     116.40379166      -1.93658269      20.53566545        4        1
Se     116.40379166      -1.93658269      17.17711265        5        1
W      112.63032457      -2.00993004      18.85638905        3        1
Se     113.57096834      -0.34046178      20.53566545        4        1
Se     113.57096834      -0.34046178      17.17711265        5        1
W      166.41983715     -29.08486993      18.85638905        3        1
Se     167.36048092     -27.41540167      20.53566545        4        1
Se     167.36048092     -27.41540167      17.17711265        5        1
W      163.58701383     -27.48874901      18.85638905        3        1
Se     164.52765761     -25.81928076      20.53566545        4        1
Se     164.52765761     -25.81928076      17.17711265        5        1
W      160.75419052     -25.89262810      18.85638905        3        1
Se     161.69483429     -24.22315985      20.53566545        4        1
Se     161.69483429     -24.22315985      17.17711265        5        1
W      157.92136720     -24.29650719      18.85638905        3        1
Se     158.86201098     -22.62703894      20.53566545        4        1
Se     158.86201098     -22.62703894      17.17711265        5        1
W      155.08854389     -22.70038628      18.85638905        3        1
Se     156.02918766     -21.03091803      20.53566545        4        1
Se     156.02918766     -21.03091803      17.17711265        5        1
W      152.25572057     -21.10426537      18.85638905        3        1
Se     153.19636435     -19.43479712      20.53566545        4        1
Se     153.19636435     -19.43479712      17.17711265        5        1
W      149.42289726     -19.50814446      18.85638905        3        1
Se     150.36354103     -17.83867620      20.53566545        4        1
Se     150.36354103     -17.83867620      17.17711265        5        1
W      146.59007394     -17.91202355      18.85638905        3        1
Se     147.53071772     -16.24255529      20.53566545        4        1
Se     147.53071772     -16.24255529      17.17711265        5        1
W      143.75725063     -16.31590264      18.85638905        3        1
Se     144.69789440     -14.64643438      20.53566545        4        1
Se     144.69789440     -14.64643438      17.17711265        5        1
W      140.92442731     -14.71978173      18.85638905        3        1
Se     141.86507109     -13.05031347      20.53566545        4        1
Se     141.86507109     -13.05031347      17.17711265        5        1
W      138.09160400     -13.12366082      18.85638905        3        1
Se     139.03224777     -11.45419256      20.53566545        4        1
Se     139.03224777     -11.45419256      17.17711265        5        1
W      135.25878068     -11.52753991      18.85638905        3        1
Se     136.19942446      -9.85807165      20.53566545        4        1
Se     136.19942446      -9.85807165      17.17711265        5        1
W      132.42595737      -9.93141900      18.85638905        3        1
Se     133.36660114      -8.26195074      20.53566545        4        1
Se     133.36660114      -8.26195074      17.17711265        5        1
W      129.59313405      -8.33529809      18.85638905        3        1
Se     130.53377783      -6.66582983      20.53566545        4        1
Se     130.53377783      -6.66582983      17.17711265        5        1
W      126.76031074      -6.73917718      18.85638905        3        1
Se     127.70095451      -5.06970892      20.53566545        4        1
Se     127.70095451      -5.06970892      17.17711265        5        1
W      123.92748742      -5.14305627      18.85638905        3        1
Se     124.86813120      -3.47358801      20.53566545        4        1
Se     124.86813120      -3.47358801      17.17711265        5        1
W      121.09466411      -3.54693536      18.85638905        3        1
Se     122.03530788      -1.87746710      20.53566545        4        1
Se     122.03530788      -1.87746710      17.17711265        5        1
W      118.26184079      -1.95081445      18.85638905        3        1
Se     119.20248457      -0.28134619      20.53566545        4        1
Se     119.20248457      -0.28134619      17.17711265        5        1
W      163.55288343     -24.23739160      18.85638905        3        1
Se     164.49352720     -22.56792335      20.53566545        4        1
Se     164.49352720     -22.56792335      17.17711265        5        1
W      160.72006012     -22.64127069      18.85638905        3        1
Se     161.66070389     -20.97180244      20.53566545        4        1
Se     161.66070389     -20.97180244      17.17711265        5        1
W      157.88723680     -21.04514978      18.85638905        3        1
Se     158.82788058     -19.37568153      20.53566545        4        1
Se     158.82788058     -19.37568153      17.17711265        5        1
W      155.05441349     -19.44902887      18.85638905        3        1
Se     155.99505726     -17.77956062      20.53566545        4        1
Se     155.99505726     -17.77956062      17.17711265        5        1
W      152.22159017     -17.85290796      18.85638905        3        1
Se     153.16223395     -16.18343970      20.53566545        4        1
Se     153.16223395     -16.18343970      17.17711265        5        1
W      149.38876686     -16.25678705      18.85638905        3        1
Se     150.32941063     -14.58731879      20.53566545        4        1
Se     150.32941063     -14.58731879      17.17711265        5        1
W      146.55594354     -14.66066614      18.85638905        3        1
Se     147.49658732     -12.99119788      20.53566545        4        1
Se     147.49658732     -12.99119788      17.17711265        5        1
W      143.72312023     -13.06454523      18.85638905        3        1
Se     144.66376400     -11.39507697      20.53566545        4        1
Se     144.66376400     -11.39507697      17.17711265        5        1
W      140.89029691     -11.46842432      18.85638905        3        1
Se     141.83094069      -9.79895606      20.53566545        4        1
Se     141.83094069      -9.79895606      17.17711265        5        1
W      138.05747360      -9.87230341      18.85638905        3        1
Se     138.99811737      -8.20283515      20.53566545        4        1
Se     138.99811737      -8.20283515      17.17711265        5        1
W      135.22465028      -8.27618250      18.85638905        3        1
Se     136.16529406      -6.60671424      20.53566545        4        1
Se     136.16529406      -6.60671424      17.17711265        5        1
W      132.39182697      -6.68006159      18.85638905        3        1
Se     133.33247074      -5.01059333      20.53566545        4        1
Se     133.33247074      -5.01059333      17.17711265        5        1
W      129.55900365      -5.08394068      18.85638905        3        1
Se     130.49964743      -3.41447242      20.53566545        4        1
Se     130.49964743      -3.41447242      17.17711265        5        1
W      126.72618034      -3.48781977      18.85638905        3        1
Se     127.66682411      -1.81835151      20.53566545        4        1
Se     127.66682411      -1.81835151      17.17711265        5        1
W      123.89335702      -1.89169886      18.85638905        3        1
Se     124.83400080      -0.22223060      20.53566545        4        1
Se     124.83400080      -0.22223060      17.17711265        5        1
W      160.68592971     -19.38991328      18.85638905        3        1
Se     161.62657349     -17.72044503      20.53566545        4        1
Se     161.62657349     -17.72044503      17.17711265        5        1
W      157.85310640     -17.79379237      18.85638905        3        1
Se     158.79375017     -16.12432412      20.53566545        4        1
Se     158.79375017     -16.12432412      17.17711265        5        1
W      155.02028308     -16.19767146      18.85638905        3        1
Se     155.96092686     -14.52820320      20.53566545        4        1
Se     155.96092686     -14.52820320      17.17711265        5        1
W      152.18745977     -14.60155055      18.85638905        3        1
Se     153.12810354     -12.93208229      20.53566545        4        1
Se     153.12810354     -12.93208229      17.17711265        5        1
W      149.35463645     -13.00542964      18.85638905        3        1
Se     150.29528023     -11.33596138      20.53566545        4        1
Se     150.29528023     -11.33596138      17.17711265        5        1
W      146.52181314     -11.40930873      18.85638905        3        1
Se     147.46245691      -9.73984047      20.53566545        4        1
Se     147.46245691      -9.73984047      17.17711265        5        1
W      143.68898983      -9.81318782      18.85638905        3        1
Se     144.62963360      -8.14371956      20.53566545        4        1
Se     144.62963360      -8.14371956      17.17711265        5        1
W      140.85616651      -8.21706691      18.85638905        3        1
Se     141.79681028      -6.54759865      20.53566545        4        1
Se     141.79681028      -6.54759865      17.17711265        5        1
W      138.02334320      -6.62094600      18.85638905        3        1
Se     138.96398697      -4.95147774      20.53566545        4        1
Se     138.96398697      -4.95147774      17.17711265        5        1
W      135.19051988      -5.02482509      18.85638905        3        1
Se     136.13116365      -3.35535683      20.53566545        4        1
Se     136.13116365      -3.35535683      17.17711265        5        1
W      132.35769657      -3.42870418      18.85638905        3        1
Se     133.29834034      -1.75923592      20.53566545        4        1
Se     133.29834034      -1.75923592      17.17711265        5        1
W      129.52487325      -1.83258327      18.85638905        3        1
Se     130.46551703      -0.16311501      20.53566545        4        1
Se     130.46551703      -0.16311501      17.17711265        5        1
W      157.81897600     -14.54243496      18.85638905        3        1
Se     158.75961977     -12.87296671      20.53566545        4        1
Se     158.75961977     -12.87296671      17.17711265        5        1
W      154.98615268     -12.94631405      18.85638905        3        1
Se     155.92679646     -11.27684579      20.53566545        4        1
Se     155.92679646     -11.27684579      17.17711265        5        1
W      152.15332937     -11.35019314      18.85638905        3        1
Se     153.09397314      -9.68072488      20.53566545        4        1
Se     153.09397314      -9.68072488      17.17711265        5        1
W      149.32050605      -9.75407223      18.85638905        3        1
Se     150.26114983      -8.08460397      20.53566545        4        1
Se     150.26114983      -8.08460397      17.17711265        5        1
W      146.48768274      -8.15795132      18.85638905        3        1
Se     147.42832651      -6.48848306      20.53566545        4        1
Se     147.42832651      -6.48848306      17.17711265        5        1
W      143.65485942      -6.56183041      18.85638905        3        1
Se     144.59550320      -4.89236215      20.53566545        4        1
Se     144.59550320      -4.89236215      17.17711265        5        1
W      140.82203611      -4.96570950      18.85638905        3        1
Se     141.76267988      -3.29624124      20.53566545        4        1
Se     141.76267988      -3.29624124      17.17711265        5        1
W      137.98921279      -3.36958859      18.85638905        3        1
Se     138.92985657      -1.70012033      20.53566545        4        1
Se     138.92985657      -1.70012033      17.17711265        5        1
W      135.15638948      -1.77346768      18.85638905        3        1
Se     136.09703325      -0.10399942      20.53566545        4        1
Se     136.09703325      -0.10399942      17.17711265        5        1
W      154.95202228      -9.69495664      18.85638905        3        1
Se     155.89266606      -8.02548838      20.53566545        4        1
Se     155.89266606      -8.02548838      17.17711265        5        1
W      152.11919897      -8.09883573      18.85638905        3        1
Se     153.05984274      -6.42936747      20.53566545        4        1
Se     153.05984274      -6.42936747      17.17711265        5        1
W      149.28637565      -6.50271482      18.85638905        3        1
Se     150.22701943      -4.83324656      20.53566545        4        1
Se     150.22701943      -4.83324656      17.17711265        5        1
W      146.45355234      -4.90659391      18.85638905        3        1
Se     147.39419611      -3.23712565      20.53566545        4        1
Se     147.39419611      -3.23712565      17.17711265        5        1
W      143.62072902      -3.31047300      18.85638905        3        1
Se     144.56137280      -1.64100474      20.53566545        4        1
Se     144.56137280      -1.64100474      17.17711265        5        1
W      140.78790571      -1.71435209      18.85638905        3        1
Se     141.72854948      -0.04488383      20.53566545        4        1
Se     141.72854948      -0.04488383      17.17711265        5        1
W      152.08506857      -4.84747832      18.85638905        3        1
Se     153.02571234      -3.17801006      20.53566545        4        1
Se     153.02571234      -3.17801006      17.17711265        5        1
W      149.25224525      -3.25135741      18.85638905        3        1
Se     150.19288902      -1.58188915      20.53566545        4        1
Se     150.19288902      -1.58188915      17.17711265        5        1
W      146.41942194      -1.65523650      18.85638905        3        1
Se     224.80194645    -134.11904032      20.53566545        4        1
Se     224.80194645    -134.11904032      17.17711265        5        1
