6
Lattice="3.1841 0.0 0.0 -1.592 2.7575 0.0 0.0 0.0 20.0" Properties=species:S:1:pos:R:3:atom_types:I:1:forces:R:3 a1_shift_crystal=0.0 a2_shift_crystal=0.0 a1_shift_cartesian="0.0 0.0" a2_shift_cartesian="-0.0 0.0" a1="3.1841 0.0" a2="-1.592 2.7575" total_shift="0.0 0.0" layer_energy="_JSON [[-3.6833802343095527, 0.022746285448208135], [0.0, -7.879796061021787]]" il_dist=6.261088740555788 energy=-11.540430009883131 pbc="T T F"
Mo       0.00000000       0.00000000       6.86945563        0       0.00016289       0.00003752      -0.03268496
S        1.59206666       0.91916667       8.43301196        1      -0.00008147      -0.00001876      -0.96798203
S        1.59206666       0.91916667       5.30589931        2      -0.00008146      -0.00001876       0.26173968
W        0.00000000       0.00000000      13.13054437        3       0.00020451       0.00004691       0.02878102
Se       1.59206666       0.91916666      14.80982077        4      -0.00010225      -0.00002345      -0.88925932
Se       1.59206666       0.91916666      11.45126797        5      -0.00010222      -0.00002345       1.59940561
6
Lattice="3.1841 0.0 0.0 -1.592 2.7575 0.0 0.0 0.0 20.0" Properties=species:S:1:pos:R:3:atom_types:I:1:forces:R:3 a1_shift_crystal=0.0 a2_shift_crystal=0.08333333333333333 a1_shift_cartesian="0.0 0.0" a2_shift_cartesian="-0.13266666666666665 0.22979166666666664" a1="3.1841 0.0" a2="-1.592 2.7575" total_shift="-0.13266666666666665 0.22979166666666664" layer_energy="_JSON [[-3.6833802343095527, 0.007023537983554307], [0.0, -7.879796061021787]]" il_dist=6.261088740555788 energy=-11.556152757347785 pbc="T T F"
Mo       0.00000000       0.00000000       6.86945563        0       0.00324484      -0.00592328      -0.03172913
S        1.59206666       0.91916667       8.43301196        1       0.05506056      -0.09549994      -0.92267859
S        1.59206666       0.91916667       5.30589931        2      -0.00008146      -0.00001876       0.26173968
W       -0.13266667       0.22979167      13.13054437        3      -0.00279235       0.00520747       0.02800551
Se       1.45940000       1.14895833      14.80982077        4      -0.00010225      -0.00002345      -0.88925932
Se       1.45940000       1.14895833      11.45126797        5      -0.05532932       0.09625796       1.55392186
6
Lattice="3.1841 0.0 0.0 -1.592 2.7575 0.0 0.0 0.0 20.0" Properties=species:S:1:pos:R:3:atom_types:I:1:forces:R:3 a1_shift_crystal=0.0 a2_shift_crystal=0.16666666666666666 a1_shift_cartesian="0.0 0.0" a2_shift_cartesian="-0.2653333333333333 0.4595833333333333" a1="3.1841 0.0" a2="-1.592 2.7575" total_shift="-0.2653333333333333 0.4595833333333333" layer_energy="_JSON [[-3.6833802343095527, -0.03675993084035166], [0.0, -7.879796061021787]]" il_dist=6.261088740555788 energy=-11.599936226171693 pbc="T T F"
Mo       0.00000000       0.00000000       6.86945563        0       0.00634708      -0.01309778      -0.02874058
S        1.59206666       0.91916667       8.43301196        1       0.09611703      -0.16645493      -0.79898547
S        1.59206666       0.91916667       5.30589931        2      -0.00008146      -0.00001876       0.26173968
W       -0.26533333       0.45958333      13.13054437        3      -0.00636613       0.01123871       0.02556579
Se       1.32673333       1.37875000      14.80982077        4      -0.00010225      -0.00002345      -0.88925932
Se       1.32673333       1.37875000      11.45126797        5      -0.09591425       0.16835623       1.42967990
6
Lattice="3.1841 0.0 0.0 -1.592 2.7575 0.0 0.0 0.0 20.0" Properties=species:S:1:pos:R:3:atom_types:I:1:forces:R:3 a1_shift_crystal=0.0 a2_shift_crystal=0.25 a1_shift_cartesian="0.0 0.0" a2_shift_cartesian="-0.398 0.689375" a1="3.1841 0.0" a2="-1.592 2.7575" total_shift="-0.398 0.689375" layer_energy="_JSON [[-3.6833802343095527, -0.0974011866066881], [0.0, -7.879796061021787]]" il_dist=6.261088740555788 energy=-11.660577481938027 pbc="T T F"
Mo       0.00000000       0.00000000       6.86945563        0       0.00902946      -0.02037654      -0.02365117
S        1.59206666       0.91916667       8.43301196        1       0.10862053      -0.18762897      -0.63376872
S        1.59206666       0.91916667       5.30589931        2      -0.00008146      -0.00001876       0.26173968
W       -0.39800000       0.68937500      13.13054437        3      -0.01016416       0.01733398       0.02135793
Se       1.19406666       1.60854166      14.80982077        4      -0.00010225      -0.00002345      -0.88925932
Se       1.19406666       1.60854166      11.45126797        5      -0.10730212       0.19071375       1.26358161
6
Lattice="3.1841 0.0 0.0 -1.592 2.7575 0.0 0.0 0.0 20.0" Properties=species:S:1:pos:R:3:atom_types:I:1:forces:R:3 a1_shift_crystal=0.0 a2_shift_crystal=0.3333333333333333 a1_shift_cartesian="0.0 0.0" a2_shift_cartesian="-0.5306666666666666 0.9191666666666666" a1="3.1841 0.0" a2="-1.592 2.7575" total_shift="-0.5306666666666666 0.9191666666666666" layer_energy="_JSON [[-3.6833802343095527, -0.15747073201624617], [0.0, -7.879796061021787]]" il_dist=6.261088740555788 energy=-11.720647027347587 pbc="T T F"
Mo       0.00000000       0.00000000       6.86945563        0       0.01003976      -0.02477190      -0.01690914
S        1.59206666       0.91916667       8.43301196        1       0.08908745      -0.15299350      -0.47795497
S        1.59206666       0.91916667       5.30589931        2      -0.00008146      -0.00001876       0.26173968
W       -0.53066667       0.91916667      13.13054437        3      -0.01274704       0.02100556       0.01559385
Se       1.06140000       1.83833333      14.80982077        4      -0.00010225      -0.00002345      -0.88925932
Se       1.06140000       1.83833333      11.45126797        5      -0.08619645       0.15680206       1.10678990
6
Lattice="3.1841 0.0 0.0 -1.592 2.7575 0.0 0.0 0.0 20.0" Properties=species:S:1:pos:R:3:atom_types:I:1:forces:R:3 a1_shift_crystal=0.0 a2_shift_crystal=0.4166666666666667 a1_shift_cartesian="0.0 0.0" a2_shift_cartesian="-0.6633333333333334 1.1489583333333333" a1="3.1841 0.0" a2="-1.592 2.7575" total_shift="-0.6633333333333334 1.1489583333333333" layer_energy="_JSON [[-3.6833802343095527, -0.20124538433712807], [0.0, -7.879796061021789]]" il_dist=6.261088740555788 energy=-11.76442167966847 pbc="T T F"
Mo       0.00000000       0.00000000       6.86945563        0       0.00810626      -0.02329130      -0.01009301
S        1.59206666       0.91916667       8.43301196        1       0.04872835      -0.08232863      -0.37259608
S        1.59206666       0.91916667       5.30589931        2      -0.00008146      -0.00001876       0.26173968
W       -0.66333333       1.14895833      13.13054437        3      -0.01232311       0.01951238       0.00952332
Se       0.92873333       2.06812500      14.80982077        4      -0.00010225      -0.00002345      -0.88925932
Se       0.92873333       2.06812500      11.45126797        5      -0.04432778       0.08614977       1.00068542
6
Lattice="3.1841 0.0 0.0 -1.592 2.7575 0.0 0.0 0.0 20.0" Properties=species:S:1:pos:R:3:atom_types:I:1:forces:R:3 a1_shift_crystal=0.0 a2_shift_crystal=0.5 a1_shift_cartesian="0.0 0.0" a2_shift_cartesian="-0.796 1.37875" a1="3.1841 0.0" a2="-1.592 2.7575" total_shift="-0.796 1.37875" layer_energy="_JSON [[-3.6833802343095527, -0.21932329871552161], [0.0, -7.879796061021787]]" il_dist=6.261088740555788 energy=-11.782499594046861 pbc="T T F"
Mo       0.00000000       0.00000000       6.86945563        0       0.00295718      -0.01502777      -0.00510601
S        1.59206666       0.91916667       8.43301196        1       0.00101548       0.00061455      -0.33623129
S        1.59206666       0.91916667       5.30589931        2      -0.00008146      -0.00001876       0.26173968
W       -0.79600000       1.37875000      13.13054437        3      -0.00811433       0.01192263       0.00481026
Se       0.79606666       2.29791666      14.80982077        4      -0.00010225      -0.00002345      -0.88925932
Se       0.79606666       2.29791666      11.45126797        5       0.00432539       0.00253281       0.96404669
6
Lattice="3.1841 0.0 0.0 -1.592 2.7575 0.0 0.0 0.0 20.0" Properties=species:S:1:pos:R:3:atom_types:I:1:forces:R:3 a1_shift_crystal=0.0 a2_shift_crystal=0.5833333333333334 a1_shift_cartesian="0.0 0.0" a2_shift_cartesian="-0.9286666666666668 1.6085416666666668" a1="3.1841 0.0" a2="-1.592 2.7575" total_shift="-0.9286666666666668 1.6085416666666668" layer_energy="_JSON [[-3.6833802343095527, -0.20850643431099725], [0.0, -7.879796061021787]]" il_dist=6.261088740555788 energy=-11.771682729642338 pbc="T T F"
Mo       0.00000000       0.00000000       6.86945563        0      -0.00384972      -0.00258242      -0.00366141
S        1.59206666       0.91916667       8.43301196        1      -0.04695696       0.08340786      -0.37259608
S        1.59206666       0.91916667       5.30589931        2      -0.00008146      -0.00001876       0.26173968
W       -0.92866667       1.60854167      13.13054437        3      -0.00142080       0.00062851       0.00309174
Se       0.66340000       2.52770833      14.80982077        4      -0.00010225      -0.00002345      -0.88925932
Se       0.66340000       2.52770833      11.45126797        5       0.05241119      -0.08141173       1.00068539
6
Lattice="3.1841 0.0 0.0 -1.592 2.7575 0.0 0.0 0.0 20.0" Properties=species:S:1:pos:R:3:atom_types:I:1:forces:R:3 a1_shift_crystal=0.0 a2_shift_crystal=0.6666666666666666 a1_shift_cartesian="0.0 0.0" a2_shift_cartesian="-1.0613333333333332 1.8383333333333332" a1="3.1841 0.0" a2="-1.592 2.7575" total_shift="-1.0613333333333332 1.8383333333333332" layer_energy="_JSON [[-3.6833802343095527, -0.16991815549426229], [0.0, -7.879796061021787]]" il_dist=6.261088740555788 energy=-11.733094450825602 pbc="T T F"
Mo       0.00000000       0.00000000       6.86945563        0      -0.00927497       0.00868303      -0.00596500
S        1.59206666       0.91916667       8.43301196        1      -0.08797327       0.15369329      -0.47795496
S        1.59206666       0.91916667       5.30589931        2      -0.00008146      -0.00001876       0.26173968
W       -1.06133333       1.83833333      13.13054437        3       0.00477015      -0.00933590       0.00464975
Se       0.53073333       2.75750000      14.80982077        4      -0.00010225      -0.00002345      -0.88925932
Se       0.53073333       2.75750000      11.45126797        5       0.09266181      -0.15299820       1.10678986
6
Lattice="3.1841 0.0 0.0 -1.592 2.7575 0.0 0.0 0.0 20.0" Properties=species:S:1:pos:R:3:atom_types:I:1:forces:R:3 a1_shift_crystal=0.0 a2_shift_crystal=0.75 a1_shift_cartesian="0.0 0.0" a2_shift_cartesian="-1.194 2.0681249999999998" a1="3.1841 0.0" a2="-1.592 2.7575" total_shift="-1.194 2.0681249999999998" layer_energy="_JSON [[-3.6833802343095527, -0.11227358790553892], [0.0, -7.879796061021788]]" il_dist=6.261088740555788 energy=-11.67544988323688 pbc="T T F"
Mo       0.00000000       0.00000000       6.86945563        0      -0.01075764       0.01389656      -0.01073589
S        1.59206666       0.91916667       8.43301196        1      -0.10820109       0.18792766      -0.63376871
S        1.59206666       0.91916667       5.30589931        2      -0.00008146      -0.00001876       0.26173968
W       -1.19400000       2.06812500      13.13054437        3       0.00766592      -0.01354943       0.00844268
Se       0.39806666       2.98729166      14.80982077        4      -0.00010225      -0.00002345      -0.88925932
Se       0.39806666       2.98729166      11.45126797        5       0.11147653      -0.18823257       1.26358156
6
Lattice="3.1841 0.0 0.0 -1.592 2.7575 0.0 0.0 0.0 20.0" Properties=species:S:1:pos:R:3:atom_types:I:1:forces:R:3 a1_shift_crystal=0.0 a2_shift_crystal=0.8333333333333334 a1_shift_cartesian="0.0 0.0" a2_shift_cartesian="-1.3266666666666669 2.2979166666666666" a1="3.1841 0.0" a2="-1.592 2.7575" total_shift="-1.3266666666666669 2.2979166666666666" layer_energy="_JSON [[-3.6833802343095527, -0.05210490847615529], [0.0, -7.879796061021788]]" il_dist=6.261088740555788 energy=-11.615281203807497 pbc="T T F"
Mo       0.00000000       0.00000000       6.86945563        0      -0.00823793       0.01216481      -0.01562002
S        1.59206666       0.91916667       8.43301196        1      -0.09611612       0.16651200      -0.79898546
S        1.59206666       0.91916667       5.30589931        2      -0.00008146      -0.00001876       0.26173968
W       -1.32666667       2.29791667      13.13054437        3       0.00672897      -0.01144328       0.01244525
Se       0.26540000       3.21708333      14.80982077        4      -0.00010225      -0.00002345      -0.88925932
Se       0.26540000       3.21708333      11.45126797        5       0.09780880      -0.16719131       1.42967987
6
Lattice="3.1841 0.0 0.0 -1.592 2.7575 0.0 0.0 0.0 20.0" Properties=species:S:1:pos:R:3:atom_types:I:1:forces:R:3 a1_shift_crystal=0.0 a2_shift_crystal=0.9166666666666666 a1_shift_cartesian="0.0 0.0" a2_shift_cartesian="-1.4593333333333334 2.527708333333333" a1="3.1841 0.0" a2="-1.592 2.7575" total_shift="-1.4593333333333334 2.527708333333333" layer_energy="_JSON [[-3.6833802343095527, -0.008094240334619713], [0.0, -7.879796061021788]]" il_dist=6.261088740555788 energy=-11.57127053566596 pbc="T T F"
Mo       0.00000000       0.00000000       6.86945563        0      -0.00395316       0.00654433      -0.01898621
S        1.59206666       0.91916667       8.43301196        1      -0.05519726       0.09547757      -0.92267858
S        1.59206666       0.91916667       5.30589931        2      -0.00008146      -0.00001876       0.26173968
W       -1.45933333       2.52770833      13.13054437        3       0.00367008      -0.00598609       0.01526259
Se       0.13273333       3.44687500      14.80982077        4      -0.00010225      -0.00002345      -0.88925932
Se       0.13273333       3.44687500      11.45126797        5       0.05566406      -0.09599359       1.55392184
6
Lattice="3.1841 0.0 0.0 -1.592 2.7575 0.0 0.0 0.0 20.0" Properties=species:S:1:pos:R:3:atom_types:I:1:forces:R:3 a1_shift_crystal=0.08333333333333333 a2_shift_crystal=0.0 a1_shift_cartesian="0.26534166666666664 0.0" a2_shift_cartesian="-0.0 0.0" a1="3.1841 0.0" a2="-1.592 2.7575" total_shift="0.26534166666666664 0.0" layer_energy="_JSON [[-3.6833802343095527, -0.008215268745744648], [0.0, -7.879796061021789]]" il_dist=6.261088740555788 energy=-11.571391564077086 pbc="T T F"
Mo       0.00000000       0.00000000       6.86945563        0      -0.00853061      -0.00012570      -0.01892065
S        1.59206666       0.91916667       8.43301196        1      -0.11034291      -0.00003405      -0.92267753
S        1.59206666       0.91916667       5.30589931        2      -0.00008146      -0.00001876       0.26173968
W        0.26534167       0.00000000      13.13054437        3       0.00816245       0.00053659       0.01519704
Se       1.85740833       0.91916666      14.80982077        4      -0.00010225      -0.00002345      -0.88925932
Se       1.85740833       0.91916666      11.45126797        5       0.11089479      -0.00033462       1.55392079
6
Lattice="3.1841 0.0 0.0 -1.592 2.7575 0.0 0.0 0.0 20.0" Properties=species:S:1:pos:R:3:atom_types:I:1:forces:R:3 a1_shift_crystal=0.08333333333333333 a2_shift_crystal=0.08333333333333333 a1_shift_cartesian="0.26534166666666664 0.0" a2_shift_cartesian="-0.13266666666666665 0.22979166666666664" a1="3.1841 0.0" a2="-1.592 2.7575" total_shift="0.132675 0.22979166666666664" layer_energy="_JSON [[-3.6833802343095527, 0.007023029365930161], [0.0, -7.879796061021787]]" il_dist=6.261088740555788 energy=-11.55615326596541 pbc="T T F"
Mo       0.00000000       0.00000000       6.86945563        0      -0.00291923      -0.00592328      -0.03172910
S        1.59206666       0.91916667       8.43301196        1      -0.05522715      -0.09549998      -0.92267708
S        1.59206666       0.91916667       5.30589931        2      -0.00008146      -0.00001876       0.26173968
W        0.13267500       0.22979167      13.13054437        3       0.00320156       0.00520747       0.02800548
Se       1.72474166       1.14895833      14.80982077        4      -0.00010225      -0.00002345      -0.88925932
Se       1.72474166       1.14895833      11.45126797        5       0.05512853       0.09625801       1.55392034
6
Lattice="3.1841 0.0 0.0 -1.592 2.7575 0.0 0.0 0.0 20.0" Properties=species:S:1:pos:R:3:atom_types:I:1:forces:R:3 a1_shift_crystal=0.08333333333333333 a2_shift_crystal=0.16666666666666666 a1_shift_cartesian="0.26534166666666664 0.0" a2_shift_cartesian="-0.2653333333333333 0.4595833333333333" a1="3.1841 0.0" a2="-1.592 2.7575" total_shift="8.333333333332416e-06 0.4595833333333333" layer_energy="_JSON [[-3.6833802343095527, -0.02293657046682753], [0.0, -7.879796061021787]]" il_dist=6.261088740555788 energy=-11.586112865798167 pbc="T T F"
Mo       0.00000000       0.00000000       6.86945563        0       0.00016269      -0.01319461      -0.02950627
S        1.59206666       0.91916667       8.43301196        1      -0.00008495      -0.17487254      -0.83814156
S        1.59206666       0.91916667       5.30589931        2      -0.00008146      -0.00001876       0.26173968
W        0.00000833       0.45958333      13.13054437        3       0.00020471       0.01099368       0.02642369
Se       1.59207500       1.37875000      14.80982077        4      -0.00010225      -0.00002345      -0.88925932
Se       1.59207500       1.37875000      11.45126797        5      -0.00009873       0.17711568       1.46874378
6
Lattice="3.1841 0.0 0.0 -1.592 2.7575 0.0 0.0 0.0 20.0" Properties=species:S:1:pos:R:3:atom_types:I:1:forces:R:3 a1_shift_crystal=0.08333333333333333 a2_shift_crystal=0.25 a1_shift_cartesian="0.26534166666666664 0.0" a2_shift_cartesian="-0.398 0.689375" a1="3.1841 0.0" a2="-1.592 2.7575" total_shift="-0.13265833333333338 0.689375" layer_energy="_JSON [[-3.6833802343095527, -0.07551843581380324], [0.0, -7.879796061021787]]" il_dist=6.261088740555788 energy=-11.638694731145144 pbc="T T F"
Mo       0.00000000       0.00000000       6.86945563        0       0.00299071      -0.02108627      -0.02494603
S        1.59206666       0.91916667       8.43301196        1       0.04058646      -0.21220625      -0.69382239
S        1.59206666       0.91916667       5.30589931        2      -0.00008146      -0.00001876       0.26173968
W       -0.13265833       0.68937500      13.13054437        3      -0.00312562       0.01731705       0.02315270
Se       1.45940833       1.60854166      14.80982077        4      -0.00010225      -0.00002345      -0.88925932
Se       1.45940833       1.60854166      11.45126797        5      -0.04026783       0.21601767       1.32313536
6
Lattice="3.1841 0.0 0.0 -1.592 2.7575 0.0 0.0 0.0 20.0" Properties=species:S:1:pos:R:3:atom_types:I:1:forces:R:3 a1_shift_crystal=0.08333333333333333 a2_shift_crystal=0.3333333333333333 a1_shift_cartesian="0.26534166666666664 0.0" a2_shift_cartesian="-0.5306666666666666 0.9191666666666666" a1="3.1841 0.0" a2="-1.592 2.7575" total_shift="-0.265325 0.9191666666666666" layer_energy="_JSON [[-3.6833802343095527, -0.13583956431618058], [0.0, -7.879796061021787]]" il_dist=6.261088740555788 energy=-11.69901585964752 pbc="T T F"
Mo       0.00000000       0.00000000       6.86945563        0       0.00504562      -0.02714480      -0.01825055
S        1.59206666       0.91916667       8.43301196        1       0.05444091      -0.19279044      -0.53481824
S        1.59206666       0.91916667       5.30589931        2      -0.00008146      -0.00001876       0.26173968
W       -0.26532500       0.91916667      13.13054437        3      -0.00629561       0.02244424       0.01814126
Se       1.32674166       1.83833333      14.80982077        4      -0.00010225      -0.00002345      -0.88925932
Se       1.32674166       1.83833333      11.45126797        5      -0.05300720       0.19753322       1.16244717
6
Lattice="3.1841 0.0 0.0 -1.592 2.7575 0.0 0.0 0.0 20.0" Properties=species:S:1:pos:R:3:atom_types:I:1:forces:R:3 a1_shift_crystal=0.08333333333333333 a2_shift_crystal=0.4166666666666667 a1_shift_cartesian="0.26534166666666664 0.0" a2_shift_cartesian="-0.6633333333333334 1.1489583333333333" a1="3.1841 0.0" a2="-1.592 2.7575" total_shift="-0.3979916666666668 1.1489583333333333" layer_energy="_JSON [[-3.6833802343095527, -0.18728333259874955], [0.0, -7.879796061021788]]" il_dist=6.261088740555788 energy=-11.750459627930091 pbc="T T F"
Mo       0.00000000       0.00000000       6.86945563        0       0.00496708      -0.02825161      -0.01081132
S        1.59206666       0.91916667       8.43301196        1       0.04051978      -0.12927351      -0.40744892
S        1.59206666       0.91916667       5.30589931        2      -0.00008146      -0.00001876       0.26173968
W       -0.39799167       1.14895833      13.13054437        3      -0.00766260       0.02370343       0.01224289
Se       1.19407500       2.06812500      14.80982077        4      -0.00010225      -0.00002345      -0.88925932
Se       1.19407500       2.06812500      11.45126797        5      -0.03764053       0.13386391       1.03353699
6
Lattice="3.1841 0.0 0.0 -1.592 2.7575 0.0 0.0 0.0 20.0" Properties=species:S:1:pos:R:3:atom_types:I:1:forces:R:3 a1_shift_crystal=0.08333333333333333 a2_shift_crystal=0.5 a1_shift_cartesian="0.26534166666666664 0.0" a2_shift_cartesian="-0.796 1.37875" a1="3.1841 0.0" a2="-1.592 2.7575" total_shift="-0.5306583333333335 1.37875" layer_energy="_JSON [[-3.6833802343095527, -0.21759722430348694], [0.0, -7.879796061021787]]" il_dist=6.261088740555788 energy=-11.780773519634828 pbc="T T F"
Mo       0.00000000       0.00000000       6.86945563        0       0.00156356      -0.02257572      -0.00440240
S        1.59206666       0.91916667       8.43301196        1       0.00710324      -0.04876272      -0.33943675
S        1.59206666       0.91916667       5.30589931        2      -0.00008146      -0.00001876       0.26173968
W       -0.53065833       1.37875000      13.13054437        3      -0.00557796       0.01909303       0.00672673
Se       1.06140833       2.29791666      14.80982077        4      -0.00010225      -0.00002345      -0.88925932
Se       1.06140833       2.29791666      11.45126797        5      -0.00290512       0.05228763       0.96463207
6
Lattice="3.1841 0.0 0.0 -1.592 2.7575 0.0 0.0 0.0 20.0" Properties=species:S:1:pos:R:3:atom_types:I:1:forces:R:3 a1_shift_crystal=0.08333333333333333 a2_shift_crystal=0.5833333333333334 a1_shift_cartesian="0.26534166666666664 0.0" a2_shift_cartesian="-0.9286666666666668 1.6085416666666668" a1="3.1841 0.0" a2="-1.592 2.7575" total_shift="-0.6633250000000002 1.6085416666666668" layer_energy="_JSON [[-3.6833802343095527, -0.22137864731090293], [0.0, -7.879796061021787]]" il_dist=6.261088740555788 energy=-11.784554942642243 pbc="T T F"
Mo       0.00000000       0.00000000       6.86945563        0      -0.00483655      -0.01146591      -0.00104775
S        1.59206666       0.91916667       8.43301196        1      -0.03870237       0.03057707      -0.33943711
S        1.59206666       0.91916667       5.30589931        2      -0.00008146      -0.00001876       0.26173968
W       -0.66332500       1.60854167      13.13054437        3      -0.00007618       0.00953921       0.00337209
Se       0.92874166       2.52770833      14.80982077        4      -0.00010225      -0.00002345      -0.88925932
Se       0.92874166       2.52770833      11.45126797        5       0.04379882      -0.02860816       0.96463242
6
Lattice="3.1841 0.0 0.0 -1.592 2.7575 0.0 0.0 0.0 20.0" Properties=species:S:1:pos:R:3:atom_types:I:1:forces:R:3 a1_shift_crystal=0.08333333333333333 a2_shift_crystal=0.6666666666666666 a1_shift_cartesian="0.26534166666666664 0.0" a2_shift_cartesian="-1.0613333333333332 1.8383333333333332" a1="3.1841 0.0" a2="-1.592 2.7575" total_shift="-0.7959916666666667 1.8383333333333332" layer_energy="_JSON [[-3.6833802343095527, -0.19751098431555392], [0.0, -7.879796061021787]]" il_dist=6.261088740555788 energy=-11.760687279646895 pbc="T T F"
Mo       0.00000000       0.00000000       6.86945563        0      -0.01217821       0.00104326      -0.00177955
S        1.59206666       0.91916667       8.43301196        1      -0.09171679       0.09977316      -0.40744996
S        1.59206666       0.91916667       5.30589931        2      -0.00008146      -0.00001876       0.26173968
W       -0.79599167       1.83833333      13.13054437        3       0.00700221      -0.00129502       0.00321116
Se       0.79607500       2.75750000      14.80982077        4      -0.00010225      -0.00002345      -0.88925932
Se       0.79607500       2.75750000      11.45126797        5       0.09707652      -0.09947918       1.03353800
6
Lattice="3.1841 0.0 0.0 -1.592 2.7575 0.0 0.0 0.0 20.0" Properties=species:S:1:pos:R:3:atom_types:I:1:forces:R:3 a1_shift_crystal=0.08333333333333333 a2_shift_crystal=0.75 a1_shift_cartesian="0.26534166666666664 0.0" a2_shift_cartesian="-1.194 2.0681249999999998" a1="3.1841 0.0" a2="-1.592 2.7575" total_shift="-0.9286583333333334 2.0681249999999998" layer_energy="_JSON [[-3.6833802343095527, -0.14992372090646305], [0.0, -7.87979606102179]]" il_dist=6.261088740555788 energy=-11.713100016237806 pbc="T T F"
Mo       0.00000000       0.00000000       6.86945563        0      -0.01699336       0.00937487      -0.00592970
S        1.59206666       0.91916667       8.43301196        1      -0.13976226       0.14358847      -0.53481977
S        1.59206666       0.91916667       5.30589931        2      -0.00008146      -0.00001876       0.26173968
W       -0.92865833       2.06812500      13.13054437        3       0.01240816      -0.00829857       0.00582045
Se       0.66340833       2.98729166      14.80982077        4      -0.00010225      -0.00002345      -0.88925932
Se       0.66340833       2.98729166      11.45126797        5       0.14453119      -0.14462255       1.16244866
6
Lattice="3.1841 0.0 0.0 -1.592 2.7575 0.0 0.0 0.0 20.0" Properties=species:S:1:pos:R:3:atom_types:I:1:forces:R:3 a1_shift_crystal=0.08333333333333333 a2_shift_crystal=0.8333333333333334 a1_shift_cartesian="0.26534166666666664 0.0" a2_shift_cartesian="-1.3266666666666669 2.2979166666666666" a1="3.1841 0.0" a2="-1.592 2.7575" total_shift="-1.0613250000000003 2.2979166666666666" layer_energy="_JSON [[-3.6833802343095527, -0.09097264216370782], [0.0, -7.879796061021788]]" il_dist=6.261088740555788 energy=-11.654148937495048 pbc="T T F"
Mo       0.00000000       0.00000000       6.86945563        0      -0.01713729       0.01071708      -0.01160906
S        1.59206666       0.91916667       8.43301196        1      -0.16350380       0.14129809      -0.69382401
S        1.59206666       0.91916667       5.30589931        2      -0.00008146      -0.00001876       0.26173968
W       -1.06132500       2.29791667      13.13054437        3       0.01391619      -0.00914078       0.00981576
Se       0.53074166       3.21708333      14.80982077        4      -0.00010225      -0.00002345      -0.88925932
Se       0.53074166       3.21708333      11.45126797        5       0.16690861      -0.14283217       1.32313695
6
Lattice="3.1841 0.0 0.0 -1.592 2.7575 0.0 0.0 0.0 20.0" Properties=species:S:1:pos:R:3:atom_types:I:1:forces:R:3 a1_shift_crystal=0.08333333333333333 a2_shift_crystal=0.9166666666666666 a1_shift_cartesian="0.26534166666666664 0.0" a2_shift_cartesian="-1.4593333333333334 2.527708333333333" a1="3.1841 0.0" a2="-1.592 2.7575" total_shift="-1.1939916666666668 2.527708333333333" layer_energy="_JSON [[-3.6833802343095527, -0.03841552569804115], [0.0, -7.879796061021788]]" il_dist=6.261088740555788 energy=-11.601591821029382 pbc="T T F"
Mo       0.00000000       0.00000000       6.86945563        0      -0.01340739       0.00649177      -0.01634460
S        1.59206666       0.91916667       8.43301196        1      -0.15150854       0.08740800      -0.83814278
S        1.59206666       0.91916667       5.30589931        2      -0.00008146      -0.00001876       0.26173968
W       -1.19399167       2.52770833      13.13054437        3       0.01179562      -0.00526463       0.01326203
Se       0.39807500       3.44687500      14.80982077        4      -0.00010225      -0.00002345      -0.88925932
Se       0.39807500       3.44687500      11.45126797        5       0.15330403      -0.08859292       1.46874499
6
Lattice="3.1841 0.0 0.0 -1.592 2.7575 0.0 0.0 0.0 20.0" Properties=species:S:1:pos:R:3:atom_types:I:1:forces:R:3 a1_shift_crystal=0.16666666666666666 a2_shift_crystal=0.0 a1_shift_cartesian="0.5306833333333333 0.0" a2_shift_cartesian="-0.0 0.0" a1="3.1841 0.0" a2="-1.592 2.7575" total_shift="0.5306833333333333 0.0" layer_energy="_JSON [[-3.6833802343095527, -0.05273918709468463], [0.0, -7.879796061021787]]" il_dist=6.261088740555788 energy=-11.615915482426026 pbc="T T F"
Mo       0.00000000       0.00000000       6.86945563        0      -0.01763112       0.00029525      -0.01516082
S        1.59206666       0.91916667       8.43301196        1      -0.19232039      -0.00011359      -0.79898177
S        1.59206666       0.91916667       5.30589931        2      -0.00008146      -0.00001876       0.26173968
W        0.53068333       0.00000000      13.13054437        3       0.01650860       0.00109566       0.01198606
Se       2.12275000       0.91916666      14.80982077        4      -0.00010225      -0.00002345      -0.88925932
Se       2.12275000       0.91916666      11.45126797        5       0.19362663      -0.00123510       1.42967617
6
Lattice="3.1841 0.0 0.0 -1.592 2.7575 0.0 0.0 0.0 20.0" Properties=species:S:1:pos:R:3:atom_types:I:1:forces:R:3 a1_shift_crystal=0.16666666666666666 a2_shift_crystal=0.08333333333333333 a1_shift_cartesian="0.5306833333333333 0.0" a2_shift_cartesian="-0.13266666666666665 0.22979166666666664" a1="3.1841 0.0" a2="-1.592 2.7575" total_shift="0.39801666666666663 0.22979166666666664" layer_energy="_JSON [[-3.6833802343095527, -0.022673859972760328], [0.0, -7.879796061021787]]" il_dist=6.261088740555788 energy=-11.585850155304101 pbc="T T F"
Mo       0.00000000       0.00000000       6.86945563        0      -0.00973787      -0.00567860      -0.03003350
S        1.59206666       0.91916667       8.43301196        1      -0.15165042      -0.08752596      -0.83811009
S        1.59206666       0.91916667       5.30589931        2      -0.00008146      -0.00001876       0.26173968
W        0.39801667       0.22979167      13.13054437        3       0.00982404       0.00560066       0.02639503
Se       1.99008333       1.14895833      14.80982077        4      -0.00010225      -0.00002345      -0.88925932
Se       1.99008333       1.14895833      11.45126797        5       0.15174797       0.08764611       1.46926821
6
Lattice="3.1841 0.0 0.0 -1.592 2.7575 0.0 0.0 0.0 20.0" Properties=species:S:1:pos:R:3:atom_types:I:1:forces:R:3 a1_shift_crystal=0.16666666666666666 a2_shift_crystal=0.16666666666666666 a1_shift_cartesian="0.5306833333333333 0.0" a2_shift_cartesian="-0.2653333333333333 0.4595833333333333" a1="3.1841 0.0" a2="-1.592 2.7575" total_shift="0.26535 0.4595833333333333" layer_energy="_JSON [[-3.6833802343095527, -0.03676182118740645], [0.0, -7.879796061021787]]" il_dist=6.261088740555788 energy=-11.599938116518747 pbc="T T F"
Mo       0.00000000       0.00000000       6.86945563        0      -0.00602172      -0.01309788      -0.02874045
S        1.59206666       0.91916667       8.43301196        1      -0.09628593      -0.16645434      -0.79898019
S        1.59206666       0.91916667       5.30589931        2      -0.00008146      -0.00001876       0.26173968
W        0.26535000       0.45958333      13.13054437        3       0.00677557       0.01123875       0.02556568
Se       1.85741666       1.37875000      14.80982077        4      -0.00010225      -0.00002345      -0.88925932
Se       1.85741666       1.37875000      11.45126797        5       0.09571580       0.16835568       1.42967460
6
Lattice="3.1841 0.0 0.0 -1.592 2.7575 0.0 0.0 0.0 20.0" Properties=species:S:1:pos:R:3:atom_types:I:1:forces:R:3 a1_shift_crystal=0.16666666666666666 a2_shift_crystal=0.25 a1_shift_cartesian="0.5306833333333333 0.0" a2_shift_cartesian="-0.398 0.689375" a1="3.1841 0.0" a2="-1.592 2.7575" total_shift="0.13268333333333326 0.689375" layer_energy="_JSON [[-3.6833802343095527, -0.07551970941859792], [0.0, -7.879796061021787]]" il_dist=6.261088740555788 energy=-11.638696004749939 pbc="T T F"
Mo       0.00000000       0.00000000       6.86945563        0      -0.00266564      -0.02108635      -0.02494592
S        1.59206666       0.91916667       8.43301196        1      -0.04075796      -0.21220545      -0.69381892
S        1.59206666       0.91916667       5.30589931        2      -0.00008146      -0.00001876       0.26173968
W        0.13268333       0.68937500      13.13054437        3       0.00353531       0.01731710       0.02315262
Se       1.72475000       1.60854166      14.80982077        4      -0.00010225      -0.00002345      -0.88925932
Se       1.72475000       1.60854166      11.45126797        5       0.04007202       0.21601692       1.32313186
6
Lattice="3.1841 0.0 0.0 -1.592 2.7575 0.0 0.0 0.0 20.0" Properties=species:S:1:pos:R:3:atom_types:I:1:forces:R:3 a1_shift_crystal=0.16666666666666666 a2_shift_crystal=0.3333333333333333 a1_shift_cartesian="0.5306833333333333 0.0" a2_shift_cartesian="-0.5306666666666666 0.9191666666666666" a1="3.1841 0.0" a2="-1.592 2.7575" total_shift="1.666666666666483e-05 0.9191666666666666" layer_energy="_JSON [[-3.6833802343095527, -0.1277870636206073], [0.0, -7.879796061021787]]" il_dist=6.261088740555788 energy=-11.690963358951947 pbc="T T F"
Mo       0.00000000       0.00000000       6.86945563        0       0.00016237      -0.02789129      -0.01870429
S        1.59206666       0.91916667       8.43301196        1      -0.00008616      -0.20736057      -0.55653732
S        1.59206666       0.91916667       5.30589931        2      -0.00008146      -0.00001876       0.26173968
W        0.00001667       0.91916667      13.13054437        3       0.00020499       0.02286310       0.01900083
Se       1.59208333       1.83833333      14.80982077        4      -0.00010225      -0.00002345      -0.88925932
Se       1.59208333       1.83833333      11.45126797        5      -0.00009748       0.21243097       1.18376041
6
Lattice="3.1841 0.0 0.0 -1.592 2.7575 0.0 0.0 0.0 20.0" Properties=species:S:1:pos:R:3:atom_types:I:1:forces:R:3 a1_shift_crystal=0.16666666666666666 a2_shift_crystal=0.4166666666666667 a1_shift_cartesian="0.5306833333333333 0.0" a2_shift_cartesian="-0.6633333333333334 1.1489583333333333" a1="3.1841 0.0" a2="-1.592 2.7575" total_shift="-0.13265000000000016 1.1489583333333333" layer_energy="_JSON [[-3.6833802343095527, -0.17871466659757643], [0.0, -7.879796061021787]]" il_dist=6.261088740555788 energy=-11.741890961928917 pbc="T T F"
Mo       0.00000000       0.00000000       6.86945563        0       0.00170881      -0.03071547      -0.01113458
S        1.59206666       0.91916667       8.43301196        1       0.01576722      -0.15676826      -0.42970496
S        1.59206666       0.91916667       5.30589931        2      -0.00008146      -0.00001876       0.26173968
W       -0.13265000       1.14895833      13.13054437        3      -0.00238349       0.02579092       0.01362053
Se       1.45941666       2.06812500      14.80982077        4      -0.00010225      -0.00002345      -0.88925932
Se       1.45941666       2.06812500      11.45126797        5      -0.01490882       0.16173502       1.05473865
6
Lattice="3.1841 0.0 0.0 -1.592 2.7575 0.0 0.0 0.0 20.0" Properties=species:S:1:pos:R:3:atom_types:I:1:forces:R:3 a1_shift_crystal=0.16666666666666666 a2_shift_crystal=0.5 a1_shift_cartesian="0.5306833333333333 0.0" a2_shift_cartesian="-0.796 1.37875" a1="3.1841 0.0" a2="-1.592 2.7575" total_shift="-0.26531666666666676 1.37875" layer_energy="_JSON [[-3.6833802343095527, -0.2153516275641277], [0.0, -7.879796061021787]]" il_dist=6.261088740555788 energy=-11.778527922895467 pbc="T T F"
Mo       0.00000000       0.00000000       6.86945563        0       0.00082155      -0.02749569      -0.00383836
S        1.59206666       0.91916667       8.43301196        1       0.00668909      -0.08466717      -0.34512833
S        1.59206666       0.91916667       5.30589931        2      -0.00008146      -0.00001876       0.26173968
W       -0.26531667       1.37875000      13.13054437        3      -0.00272544       0.02383538       0.00789498
Se       1.32675000       2.29791666      14.80982077        4      -0.00010225      -0.00002345      -0.88925932
Se       1.32675000       2.29791666      11.45126797        5      -0.00460149       0.08836971       0.96859135
6
Lattice="3.1841 0.0 0.0 -1.592 2.7575 0.0 0.0 0.0 20.0" Properties=species:S:1:pos:R:3:atom_types:I:1:forces:R:3 a1_shift_crystal=0.16666666666666666 a2_shift_crystal=0.5833333333333334 a1_shift_cartesian="0.5306833333333333 0.0" a2_shift_cartesian="-0.9286666666666668 1.6085416666666668" a1="3.1841 0.0" a2="-1.592 2.7575" total_shift="-0.39798333333333347 1.6085416666666668" layer_energy="_JSON [[-3.6833802343095527, -0.23078804272074055], [0.0, -7.879796061021787]]" il_dist=6.261088740555788 energy=-11.793964338052081 pbc="T T F"
Mo       0.00000000       0.00000000       6.86945563        0      -0.00348765      -0.01862439       0.00124854
S        1.59206666       0.91916667       8.43301196        1      -0.02294000      -0.01321482      -0.31613667
S        1.59206666       0.91916667       5.30589931        2      -0.00008146      -0.00001876       0.26173968
W       -0.39798333       1.60854167      13.13054437        3       0.00043544       0.01673453       0.00336494
Se       1.19408333       2.52770833      14.80982077        4      -0.00010225      -0.00002345      -0.88925932
Se       1.19408333       2.52770833      11.45126797        5       0.02617592       0.01514690       0.93904283
6
Lattice="3.1841 0.0 0.0 -1.592 2.7575 0.0 0.0 0.0 20.0" Properties=species:S:1:pos:R:3:atom_types:I:1:forces:R:3 a1_shift_crystal=0.16666666666666666 a2_shift_crystal=0.6666666666666666 a1_shift_cartesian="0.5306833333333333 0.0" a2_shift_cartesian="-1.0613333333333332 1.8383333333333332" a1="3.1841 0.0" a2="-1.592 2.7575" total_shift="-0.53065 1.8383333333333332" layer_energy="_JSON [[-3.6833802343095527, -0.2225963225048319], [0.0, -7.879796061021787]]" il_dist=6.261088740555788 energy=-11.785772617836173 pbc="T T F"
Mo       0.00000000       0.00000000       6.86945563        0      -0.01070512      -0.00680600       0.00257235
S        1.59206666       0.91916667       8.43301196        1      -0.07000369       0.04817183      -0.34512957
S        1.59206666       0.91916667       5.30589931        2      -0.00008146      -0.00001876       0.26173968
W       -0.53065000       1.83833333      13.13054437        3       0.00669385       0.00679586       0.00148428
Se       1.06141666       2.75750000      14.80982077        4      -0.00010225      -0.00002345      -0.88925932
Se       1.06141666       2.75750000      11.45126797        5       0.07419868      -0.04811947       0.96859258
6
Lattice="3.1841 0.0 0.0 -1.592 2.7575 0.0 0.0 0.0 20.0" Properties=species:S:1:pos:R:3:atom_types:I:1:forces:R:3 a1_shift_crystal=0.16666666666666666 a2_shift_crystal=0.75 a1_shift_cartesian="0.5306833333333333 0.0" a2_shift_cartesian="-1.194 2.0681249999999998" a1="3.1841 0.0" a2="-1.592 2.7575" total_shift="-0.6633166666666667 2.0681249999999998" layer_energy="_JSON [[-3.6833802343095527, -0.1913153604593576], [0.0, -7.879796061021789]]" il_dist=6.261088740555788 energy=-11.7544916557907 pbc="T T F"
Mo       0.00000000       0.00000000       6.86945563        0      -0.01818485       0.00348839      -0.00004993
S        1.59206666       0.91916667       8.43301196        1      -0.12790490       0.09208516      -0.42970728
S        1.59206666       0.91916667       5.30589931        2      -0.00008146      -0.00001876       0.26173968
W       -0.66331667       2.06812500      13.13054437        3       0.01369336      -0.00180187       0.00253591
Se       0.92875000       2.98729166      14.80982077        4      -0.00010225      -0.00002345      -0.88925932
Se       0.92875000       2.98729166      11.45126797        5       0.13258011      -0.09372946       1.05474095
6
Lattice="3.1841 0.0 0.0 -1.592 2.7575 0.0 0.0 0.0 20.0" Properties=species:S:1:pos:R:3:atom_types:I:1:forces:R:3 a1_shift_crystal=0.16666666666666666 a2_shift_crystal=0.8333333333333334 a1_shift_cartesian="0.5306833333333333 0.0" a2_shift_cartesian="-1.3266666666666669 2.2979166666666666" a1="3.1841 0.0" a2="-1.592 2.7575" total_shift="-0.7959833333333336 2.2979166666666666" layer_energy="_JSON [[-3.6833802343095527, -0.14313347189473896], [0.0, -7.879796061021789]]" il_dist=6.261088740555788 energy=-11.706309767226081 pbc="T T F"
Mo       0.00000000       0.00000000       6.86945563        0      -0.02229337       0.00818966      -0.00533671
S        1.59206666       0.91916667       8.43301196        1      -0.17964514       0.10365227      -0.55654023
S        1.59206666       0.91916667       5.30589931        2      -0.00008146      -0.00001876       0.26173968
W       -0.79598333       2.29791667      13.13054437        3       0.01823315      -0.00554889       0.00563329
Se       0.79608333       3.21708333      14.80982077        4      -0.00010225      -0.00002345      -0.88925932
Se       0.79608333       3.21708333      11.45126797        5       0.18388908      -0.10625083       1.18376330
6
Lattice="3.1841 0.0 0.0 -1.592 2.7575 0.0 0.0 0.0 20.0" Properties=species:S:1:pos:R:3:atom_types:I:1:forces:R:3 a1_shift_crystal=0.16666666666666666 a2_shift_crystal=0.9166666666666666 a1_shift_cartesian="0.5306833333333333 0.0" a2_shift_cartesian="-1.4593333333333334 2.527708333333333" a1="3.1841 0.0" a2="-1.592 2.7575" total_shift="-0.9286500000000001 2.527708333333333" layer_energy="_JSON [[-3.6833802343095527, -0.09161255230190393], [0.0, -7.879796061021789]]" il_dist=6.261088740555788 energy=-11.654788847633245 pbc="T T F"
Mo       0.00000000       0.00000000       6.86945563        0      -0.02161638       0.00637731      -0.01110291
S        1.59206666       0.91916667       8.43301196        1      -0.20417694       0.07085153      -0.69382159
S        1.59206666       0.91916667       5.30589931        2      -0.00008146      -0.00001876       0.26173968
W       -0.92865000       2.52770833      13.13054437        3       0.01889756      -0.00393101       0.00930963
Se       0.66341666       3.44687500      14.80982077        4      -0.00010225      -0.00002345      -0.88925932
Se       0.66341666       3.44687500      11.45126797        5       0.20707948      -0.07325561       1.32313451
6
Lattice="3.1841 0.0 0.0 -1.592 2.7575 0.0 0.0 0.0 20.0" Properties=species:S:1:pos:R:3:atom_types:I:1:forces:R:3 a1_shift_crystal=0.25 a2_shift_crystal=0.0 a1_shift_cartesian="0.796025 0.0" a2_shift_cartesian="-0.0 0.0" a1="3.1841 0.0" a2="-1.592 2.7575" total_shift="0.796025 0.0" layer_energy="_JSON [[-3.6833802343095527, -0.11416624822130413], [0.0, -7.879796061021789]]" il_dist=6.261088740555788 energy=-11.677342543552646 pbc="T T F"
Mo       0.00000000       0.00000000       6.86945563        0      -0.02391494       0.00108534      -0.00923564
S        1.59206666       0.91916667       8.43301196        1      -0.21690834      -0.00035526      -0.63376225
S        1.59206666       0.91916667       5.30589931        2      -0.00008146      -0.00001876       0.26173968
W        0.79602500       0.00000000      13.13054437        3       0.02232529       0.00186352       0.00694247
Se       2.38809166       0.91916666      14.80982077        4      -0.00010225      -0.00002345      -0.88925932
Se       2.38809166       0.91916666      11.45126797        5       0.21868171      -0.00255138       1.26357505
6
Lattice="3.1841 0.0 0.0 -1.592 2.7575 0.0 0.0 0.0 20.0" Properties=species:S:1:pos:R:3:atom_types:I:1:forces:R:3 a1_shift_crystal=0.25 a2_shift_crystal=0.08333333333333333 a1_shift_cartesian="0.796025 0.0" a2_shift_cartesian="-0.13266666666666665 0.22979166666666664" a1="3.1841 0.0" a2="-1.592 2.7575" total_shift="0.6633583333333333 0.22979166666666664" layer_energy="_JSON [[-3.6833802343095527, -0.0748097658769145], [0.0, -7.879796061021787]]" il_dist=6.261088740555788 energy=-11.637986061208254 pbc="T T F"
Mo       0.00000000       0.00000000       6.86945563        0      -0.01728355      -0.00498044      -0.02645929
S        1.59206666       0.91916667       8.43301196        1      -0.20459894      -0.07129816      -0.69365457
S        1.59206666       0.91916667       5.30589931        2      -0.00008146      -0.00001876       0.26173968
W        0.66335833       0.22979167      13.13054437        3       0.01724754       0.00620684       0.02299097
Se       2.25542500       1.14895833      14.80982077        4      -0.00010225      -0.00002345      -0.88925932
Se       2.25542500       1.14895833      11.45126797        5       0.20481867       0.07011398       1.32464253
6
Lattice="3.1841 0.0 0.0 -1.592 2.7575 0.0 0.0 0.0 20.0" Properties=species:S:1:pos:R:3:atom_types:I:1:forces:R:3 a1_shift_crystal=0.25 a2_shift_crystal=0.16666666666666666 a1_shift_cartesian="0.796025 0.0" a2_shift_cartesian="-0.2653333333333333 0.4595833333333333" a1="3.1841 0.0" a2="-1.592 2.7575" total_shift="0.5306916666666667 0.4595833333333333" layer_energy="_JSON [[-3.6833802343095527, -0.07481014176876594], [0.0, -7.879796061021787]]" il_dist=6.261088740555788 energy=-11.637986437100107 pbc="T T F"
Mo       0.00000000       0.00000000       6.86945563        0      -0.01290621      -0.01256245      -0.02645927
S        1.59206666       0.91916667       8.43301196        1      -0.16407181      -0.14149464      -0.69365353
S        1.59206666       0.91916667       5.30589931        2      -0.00008146      -0.00001876       0.26173968
W        0.53069167       0.45958333      13.13054437        3       0.01406087       0.01172651       0.02299095
Se       2.12275833       1.37875000      14.80982077        4      -0.00010225      -0.00002345      -0.88925932
Se       2.12275833       1.37875000      11.45126797        5       0.16310087       0.14237280       1.32464150
6
Lattice="3.1841 0.0 0.0 -1.592 2.7575 0.0 0.0 0.0 20.0" Properties=species:S:1:pos:R:3:atom_types:I:1:forces:R:3 a1_shift_crystal=0.25 a2_shift_crystal=0.25 a1_shift_cartesian="0.796025 0.0" a2_shift_cartesian="-0.398 0.689375" a1="3.1841 0.0" a2="-1.592 2.7575" total_shift="0.39802499999999996 0.689375" layer_energy="_JSON [[-3.6833802343095527, -0.09740463510802992], [0.0, -7.879796061021787]]" il_dist=6.261088740555788 energy=-11.66058093043937 pbc="T T F"
Mo       0.00000000       0.00000000       6.86945563        0      -0.00870436      -0.02037676      -0.02365085
S        1.59206666       0.91916667       8.43301196        1      -0.10878929      -0.18762672      -0.63375947
S        1.59206666       0.91916667       5.30589931        2      -0.00008146      -0.00001876       0.26173968
W        0.39802500       0.68937500      13.13054437        3       0.01057385       0.01733408       0.02135768
Se       1.99009166       1.60854166      14.80982077        4      -0.00010225      -0.00002345      -0.88925932
Se       1.99009166       1.60854166      11.45126797        5       0.10710352       0.19071161       1.26357229
6
Lattice="3.1841 0.0 0.0 -1.592 2.7575 0.0 0.0 0.0 20.0" Properties=species:S:1:pos:R:3:atom_types:I:1:forces:R:3 a1_shift_crystal=0.25 a2_shift_crystal=0.3333333333333333 a1_shift_cartesian="0.796025 0.0" a2_shift_cartesian="-0.5306666666666666 0.9191666666666666" a1="3.1841 0.0" a2="-1.592 2.7575" total_shift="0.26535833333333336 0.9191666666666666" layer_energy="_JSON [[-3.6833802343095527, -0.13584221022120238], [0.0, -7.879796061021787]]" il_dist=6.261088740555788 energy=-11.699018505552543 pbc="T T F"
Mo       0.00000000       0.00000000       6.86945563        0      -0.00472085      -0.02714499      -0.01825024
S        1.59206666       0.91916667       8.43301196        1      -0.05461166      -0.19278821      -0.53481137
S        1.59206666       0.91916667       5.30589931        2      -0.00008146      -0.00001876       0.26173968
W        0.26535833       0.91916667      13.13054437        3       0.00670558       0.02244434       0.01814102
Se       1.85742500       1.83833333      14.80982077        4      -0.00010225      -0.00002345      -0.88925932
Se       1.85742500       1.83833333      11.45126797        5       0.05281064       0.19753107       1.16244023
6
Lattice="3.1841 0.0 0.0 -1.592 2.7575 0.0 0.0 0.0 20.0" Properties=species:S:1:pos:R:3:atom_types:I:1:forces:R:3 a1_shift_crystal=0.25 a2_shift_crystal=0.4166666666666667 a1_shift_cartesian="0.796025 0.0" a2_shift_cartesian="-0.6633333333333334 1.1489583333333333" a1="3.1841 0.0" a2="-1.592 2.7575" total_shift="0.13269166666666654 1.1489583333333333" layer_energy="_JSON [[-3.6833802343095527, -0.1787159947228129], [0.0, -7.879796061021787]]" il_dist=6.261088740555788 energy=-11.741892290054153 pbc="T T F"
Mo       0.00000000       0.00000000       6.86945563        0      -0.00138436      -0.03071556      -0.01113439
S        1.59206666       0.91916667       8.43301196        1      -0.01593852      -0.15676717      -0.42970165
S        1.59206666       0.91916667       5.30589931        2      -0.00008146      -0.00001876       0.26173968
W        0.13269167       1.14895833      13.13054437        3       0.00279376       0.02579098       0.01362038
Se       1.72475833       2.06812500      14.80982077        4      -0.00010225      -0.00002345      -0.88925932
Se       1.72475833       2.06812500      11.45126797        5       0.01471284       0.16173396       1.05473530
6
Lattice="3.1841 0.0 0.0 -1.592 2.7575 0.0 0.0 0.0 20.0" Properties=species:S:1:pos:R:3:atom_types:I:1:forces:R:3 a1_shift_crystal=0.25 a2_shift_crystal=0.5 a1_shift_cartesian="0.796025 0.0" a2_shift_cartesian="-0.796 1.37875" a1="3.1841 0.0" a2="-1.592 2.7575" total_shift="2.4999999999941735e-05 1.37875" layer_energy="_JSON [[-3.6833802343095527, -0.21416206426099862], [0.0, -7.879796061021787]]" il_dist=6.261088740555788 energy=-11.777338359592338 pbc="T T F"
Mo       0.00000000       0.00000000       6.86945563        0       0.00016212      -0.02917266      -0.00354081
S        1.59206666       0.91916667       8.43301196        1      -0.00008539      -0.09773833      -0.34791385
S        1.59206666       0.91916667       5.30589931        2      -0.00008146      -0.00001876       0.26173968
W        0.00002500       1.37875000      13.13054437        3       0.00020526       0.02546920       0.00818293
Se       1.59209166       2.29791666      14.80982077        4      -0.00010225      -0.00002345      -0.88925932
Se       1.59209166       2.29791666      11.45126797        5      -0.00009827       0.10148401       0.97079137
6
Lattice="3.1841 0.0 0.0 -1.592 2.7575 0.0 0.0 0.0 20.0" Properties=species:S:1:pos:R:3:atom_types:I:1:forces:R:3 a1_shift_crystal=0.25 a2_shift_crystal=0.5833333333333334 a1_shift_cartesian="0.796025 0.0" a2_shift_cartesian="-0.9286666666666668 1.6085416666666668" a1="3.1841 0.0" a2="-1.592 2.7575" total_shift="-0.13264166666666677 1.6085416666666668" layer_energy="_JSON [[-3.6833802343095527, -0.23551464961845067], [0.0, -7.879796061021787]]" il_dist=6.261088740555788 energy=-11.79869094494979 pbc="T T F"
Mo       0.00000000       0.00000000       6.86945563        0      -0.00113098      -0.02264315       0.00241461
S        1.59206666       0.91916667       8.43301196        1      -0.00729081      -0.03755366      -0.30499521
S        1.59206666       0.91916667       5.30589931        2      -0.00008146      -0.00001876       0.26173968
W       -0.13264167       1.60854167      13.13054437        3       0.00037248       0.02080778       0.00337354
Se       1.45942500       2.52770833      14.80982077        4      -0.00010225      -0.00002345      -0.88925932
Se       1.45942500       2.52770833      11.45126797        5       0.00823303       0.03943125       0.92672671
6
Lattice="3.1841 0.0 0.0 -1.592 2.7575 0.0 0.0 0.0 20.0" Properties=species:S:1:pos:R:3:atom_types:I:1:forces:R:3 a1_shift_crystal=0.25 a2_shift_crystal=0.6666666666666666 a1_shift_cartesian="0.796025 0.0" a2_shift_cartesian="-1.0613333333333332 1.8383333333333332" a1="3.1841 0.0" a2="-1.592 2.7575" total_shift="-0.26530833333333326 1.8383333333333332" layer_energy="_JSON [[-3.6833802343095527, -0.23915642417576793], [0.0, -7.879796061021787]]" il_dist=6.261088740555788 energy=-11.802332719507108 pbc="T T F"
Mo       0.00000000       0.00000000       6.86945563        0      -0.00599842      -0.01259808       0.00563354
S        1.59206666       0.91916667       8.43301196        1      -0.03619319       0.01250772      -0.30499598
S        1.59206666       0.91916667       5.30589931        2      -0.00008146      -0.00001876       0.26173968
W       -0.26530833       1.83833333      13.13054437        3       0.00414030       0.01266737       0.00015460
Se       1.32675833       2.75750000      14.80982077        4      -0.00010225      -0.00002345      -0.88925932
Se       1.32675833       2.75750000      11.45126797        5       0.03823504      -0.01253479       0.92672747
6
Lattice="3.1841 0.0 0.0 -1.592 2.7575 0.0 0.0 0.0 20.0" Properties=species:S:1:pos:R:3:atom_types:I:1:forces:R:3 a1_shift_crystal=0.25 a2_shift_crystal=0.75 a1_shift_cartesian="0.796025 0.0" a2_shift_cartesian="-1.194 2.0681249999999998" a1="3.1841 0.0" a2="-1.592 2.7575" total_shift="-0.39797499999999997 2.0681249999999998" layer_energy="_JSON [[-3.6833802343095527, -0.22419965423942273], [0.0, -7.879796061021788]]" il_dist=6.261088740555788 energy=-11.787375949570764 pbc="T T F"
Mo       0.00000000       0.00000000       6.86945563        0      -0.01342480      -0.00229325       0.00530541
S        1.59206666       0.91916667       8.43301196        1      -0.08471126       0.04884085      -0.34791609
S        1.59206666       0.91916667       5.30589931        2      -0.00008146      -0.00001876       0.26173968
W       -0.39797500       2.06812500      13.13054437        3       0.01051184       0.00427164      -0.00066328
Se       1.19409166       2.98729166      14.80982077        4      -0.00010225      -0.00002345      -0.88925932
Se       1.19409166       2.98729166      11.45126797        5       0.08780794      -0.05077702       0.97079359
6
Lattice="3.1841 0.0 0.0 -1.592 2.7575 0.0 0.0 0.0 20.0" Properties=species:S:1:pos:R:3:atom_types:I:1:forces:R:3 a1_shift_crystal=0.25 a2_shift_crystal=0.8333333333333334 a1_shift_cartesian="0.796025 0.0" a2_shift_cartesian="-1.3266666666666669 2.2979166666666666" a1="3.1841 0.0" a2="-1.592 2.7575" total_shift="-0.5306416666666669 2.2979166666666666" layer_energy="_JSON [[-3.6833802343095527, -0.1930038714324964], [0.0, -7.879796061021788]]" il_dist=6.261088740555788 energy=-11.756180166763837 pbc="T T F"
Mo       0.00000000       0.00000000       6.86945563        0      -0.02066684       0.00463809       0.00138268
S        1.59206666       0.91916667       8.43301196        1      -0.14375780       0.06462660      -0.42970497
S        1.59206666       0.91916667       5.30589931        2      -0.00008146      -0.00001876       0.26173968
W       -0.53064167       2.29791667      13.13054437        3       0.01721741      -0.00114671       0.00110332
Se       1.06142500       3.21708333      14.80982077        4      -0.00010225      -0.00002345      -0.88925932
Se       1.06142500       3.21708333      11.45126797        5       0.14739095      -0.06807577       1.05473861
6
Lattice="3.1841 0.0 0.0 -1.592 2.7575 0.0 0.0 0.0 20.0" Properties=species:S:1:pos:R:3:atom_types:I:1:forces:R:3 a1_shift_crystal=0.25 a2_shift_crystal=0.9166666666666666 a1_shift_cartesian="0.796025 0.0" a2_shift_cartesian="-1.4593333333333334 2.527708333333333" a1="3.1841 0.0" a2="-1.592 2.7575" total_shift="-0.6633083333333334 2.527708333333333" layer_energy="_JSON [[-3.6833802343095527, -0.15211290603558328], [0.0, -7.8797960610217865]]" il_dist=6.261088740555788 energy=-11.715289201366922 pbc="T T F"
Mo       0.00000000       0.00000000       6.86945563        0      -0.02447529       0.00552670      -0.00411924
S        1.59206666       0.91916667       8.43301196        1      -0.19428924       0.04914522      -0.53481497
S        1.59206666       0.91916667       5.30589931        2      -0.00008146      -0.00001876       0.26173968
W       -0.66330833       2.52770833      13.13054437        3       0.02150744      -0.00164903       0.00401003
Se       0.92875833       3.44687500      14.80982077        4      -0.00010225      -0.00002345      -0.88925932
Se       0.92875833       3.44687500      11.45126797        5       0.19744081      -0.05298067       1.16244382
6
Lattice="3.1841 0.0 0.0 -1.592 2.7575 0.0 0.0 0.0 20.0" Properties=species:S:1:pos:R:3:atom_types:I:1:forces:R:3 a1_shift_crystal=0.3333333333333333 a2_shift_crystal=0.0 a1_shift_cartesian="1.0613666666666666 0.0" a2_shift_cartesian="-0.0 0.0" a1="3.1841 0.0" a2="-1.592 2.7575" total_shift="1.0613666666666666 0.0" layer_energy="_JSON [[-3.6833802343095527, -0.17414654976719657], [0.0, -7.879796061021787]]" il_dist=6.261088740555788 energy=-11.737322845098536 pbc="T T F"
Mo       0.00000000       0.00000000       6.86945563        0      -0.02306049       0.00192625      -0.00246299
S        1.59206666       0.91916667       8.43301196        1      -0.17714503      -0.00075633      -0.47794700
S        1.59206666       0.91916667       5.30589931        2      -0.00008146      -0.00001876       0.26173968
W        1.06136667       0.00000000      13.13054437        3       0.02163036       0.00274641       0.00114782
Se       2.65343333       0.91916666      14.80982077        4      -0.00010225      -0.00002345      -0.88925932
Se       2.65343333       0.91916666      11.45126797        5       0.17875888      -0.00387411       1.10678182
6
Lattice="3.1841 0.0 0.0 -1.592 2.7575 0.0 0.0 0.0 20.0" Properties=species:S:1:pos:R:3:atom_types:I:1:forces:R:3 a1_shift_crystal=0.3333333333333333 a2_shift_crystal=0.08333333333333333 a1_shift_cartesian="1.0613666666666666 0.0" a2_shift_cartesian="-0.13266666666666665 0.22979166666666664" a1="3.1841 0.0" a2="-1.592 2.7575" total_shift="0.9286999999999999 0.22979166666666664" layer_energy="_JSON [[-3.6833802343095527, -0.1346659102465755], [0.0, -7.879796061021787]]" il_dist=6.261088740555788 energy=-11.697842205577915 pbc="T T F"
Mo       0.00000000       0.00000000       6.86945563        0      -0.02356290      -0.00366314      -0.02096143
S        1.59206666       0.91916667       8.43301196        1      -0.19497325      -0.05022924      -0.53434950
S        1.59206666       0.91916667       5.30589931        2      -0.00008146      -0.00001876       0.26173968
W        0.92870000       0.22979167      13.13054437        3       0.02353700       0.00666246       0.01768062
Se       2.52076666       1.14895833      14.80982077        4      -0.00010225      -0.00002345      -0.88925932
Se       2.52076666       1.14895833      11.45126797        5       0.19518287       0.04727214       1.16514995
6
Lattice="3.1841 0.0 0.0 -1.592 2.7575 0.0 0.0 0.0 20.0" Properties=species:S:1:pos:R:3:atom_types:I:1:forces:R:3 a1_shift_crystal=0.3333333333333333 a2_shift_crystal=0.16666666666666666 a1_shift_cartesian="1.0613666666666666 0.0" a2_shift_cartesian="-0.2653333333333333 0.4595833333333333" a1="3.1841 0.0" a2="-1.592 2.7575" total_shift="0.7960333333333333 0.4595833333333333" layer_energy="_JSON [[-3.6833802343095527, -0.12617736673946275], [0.0, -7.879796061021787]]" il_dist=6.261088740555788 energy=-11.689353662070802 pbc="T T F"
Mo       0.00000000       0.00000000       6.86945563        0      -0.01959674      -0.01137058      -0.02237462
S        1.59206666       0.91916667       8.43301196        1      -0.18074136      -0.10432159      -0.55593829
S        1.59206666       0.91916667       5.30589931        2      -0.00008146      -0.00001876       0.26173968
W        0.79603333       0.45958333      13.13054437        3       0.02106112       0.01208833       0.01840840
Se       2.38810000       1.37875000      14.80982077        4      -0.00010225      -0.00002345      -0.88925932
Se       2.38810000       1.37875000      11.45126797        5       0.17946069       0.10364607       1.18742416
6
Lattice="3.1841 0.0 0.0 -1.592 2.7575 0.0 0.0 0.0 20.0" Properties=species:S:1:pos:R:3:atom_types:I:1:forces:R:3 a1_shift_crystal=0.3333333333333333 a2_shift_crystal=0.25 a1_shift_cartesian="1.0613666666666666 0.0" a2_shift_cartesian="-0.398 0.689375" a1="3.1841 0.0" a2="-1.592 2.7575" total_shift="0.6633666666666665 0.689375" layer_energy="_JSON [[-3.6833802343095527, -0.13466669635141873], [0.0, -7.879796061021787]]" il_dist=6.261088740555788 energy=-11.697842991682759 pbc="T T F"
Mo       0.00000000       0.00000000       6.86945563        0      -0.01490518      -0.01865922      -0.02096136
S        1.59206666       0.91916667       8.43301196        1      -0.14101254      -0.14369315      -0.53434743
S        1.59206666       0.91916667       5.30589931        2      -0.00008146      -0.00001876       0.26173968
W        0.66336667       0.68937500      13.13054437        3       0.01760028       0.01694553       0.01768054
Se       2.25543333       1.60854166      14.80982077        4      -0.00010225      -0.00002345      -0.88925932
Se       2.25543333       1.60854166      11.45126797        5       0.13850116       0.14544906       1.16514789
6
Lattice="3.1841 0.0 0.0 -1.592 2.7575 0.0 0.0 0.0 20.0" Properties=species:S:1:pos:R:3:atom_types:I:1:forces:R:3 a1_shift_crystal=0.3333333333333333 a2_shift_crystal=0.3333333333333333 a1_shift_cartesian="1.0613666666666666 0.0" a2_shift_cartesian="-0.5306666666666666 0.9191666666666666" a1="3.1841 0.0" a2="-1.592 2.7575" total_shift="0.5307 0.9191666666666666" layer_energy="_JSON [[-3.6833802343095527, -0.15747521684875007], [0.0, -7.879796061021787]]" il_dist=6.261088740555788 energy=-11.72065151218009 pbc="T T F"
Mo       0.00000000       0.00000000       6.86945563        0      -0.00971480      -0.02477218      -0.01690857
S        1.59206666       0.91916667       8.43301196        1      -0.08925412      -0.15298986      -0.47794357
S        1.59206666       0.91916667       5.30589931        2      -0.00008146      -0.00001876       0.26173968
W        0.53070000       0.91916667      13.13054437        3       0.01315690       0.02100570       0.01559339
Se       2.12276666       1.83833333      14.80982077        4      -0.00010225      -0.00002345      -0.88925932
Se       2.12276666       1.83833333      11.45126797        5       0.08599573       0.15679856       1.10677839
6
Lattice="3.1841 0.0 0.0 -1.592 2.7575 0.0 0.0 0.0 20.0" Properties=species:S:1:pos:R:3:atom_types:I:1:forces:R:3 a1_shift_crystal=0.3333333333333333 a2_shift_crystal=0.4166666666666667 a1_shift_cartesian="1.0613666666666666 0.0" a2_shift_cartesian="-0.6633333333333334 1.1489583333333333" a1="3.1841 0.0" a2="-1.592 2.7575" total_shift="0.39803333333333313 1.1489583333333333" layer_energy="_JSON [[-3.6833802343095527, -0.1872869666651203], [0.0, -7.879796061021787]]" il_dist=6.261088740555788 energy=-11.75046326199646 pbc="T T F"
Mo       0.00000000       0.00000000       6.86945563        0      -0.00464245      -0.02825182      -0.01081077
S        1.59206666       0.91916667       8.43301196        1      -0.04068844      -0.12927083      -0.40744007
S        1.59206666       0.91916667       5.30589931        2      -0.00008146      -0.00001876       0.26173968
W        0.39803333       1.14895833      13.13054437        3       0.00807275       0.02370355       0.01224244
Se       1.99010000       2.06812500      14.80982077        4      -0.00010225      -0.00002345      -0.88925932
Se       1.99010000       2.06812500      11.45126797        5       0.03744185       0.13386131       1.03352804
6
Lattice="3.1841 0.0 0.0 -1.592 2.7575 0.0 0.0 0.0 20.0" Properties=species:S:1:pos:R:3:atom_types:I:1:forces:R:3 a1_shift_crystal=0.3333333333333333 a2_shift_crystal=0.5 a1_shift_cartesian="1.0613666666666666 0.0" a2_shift_cartesian="-0.796 1.37875" a1="3.1841 0.0" a2="-1.592 2.7575" total_shift="0.26536666666666653 1.37875" layer_energy="_JSON [[-3.6833802343095527, -0.215354044304642], [0.0, -7.879796061021787]]" il_dist=6.261088740555788 energy=-11.778530339635982 pbc="T T F"
Mo       0.00000000       0.00000000       6.86945563        0      -0.00049719      -0.02749581      -0.00383795
S        1.59206666       0.91916667       8.43301196        1      -0.00685883      -0.08466621      -0.34512262
S        1.59206666       0.91916667       5.30589931        2      -0.00008146      -0.00001876       0.26173968
W        0.26536667       1.37875000      13.13054437        3       0.00313586       0.02383546       0.00789462
Se       1.85743333       2.29791666      14.80982077        4      -0.00010225      -0.00002345      -0.88925932
Se       1.85743333       2.29791666      11.45126797        5       0.00440388       0.08836878       0.96858558
6
Lattice="3.1841 0.0 0.0 -1.592 2.7575 0.0 0.0 0.0 20.0" Properties=species:S:1:pos:R:3:atom_types:I:1:forces:R:3 a1_shift_crystal=0.3333333333333333 a2_shift_crystal=0.5833333333333334 a1_shift_cartesian="1.0613666666666666 0.0" a2_shift_cartesian="-0.9286666666666668 1.6085416666666668" a1="3.1841 0.0" a2="-1.592 2.7575" total_shift="0.13269999999999982 1.6085416666666668" layer_energy="_JSON [[-3.6833802343095527, -0.23551584097781153], [0.0, -7.879796061021787]]" il_dist=6.261088740555788 energy=-11.798692136309151 pbc="T T F"
Mo       0.00000000       0.00000000       6.86945563        0       0.00145518      -0.02264320       0.00241481
S        1.59206666       0.91916667       8.43301196        1       0.00712070      -0.03755379      -0.30499244
S        1.59206666       0.91916667       5.30589931        2      -0.00008146      -0.00001876       0.26173968
W        0.13270000       1.60854167      13.13054437        3       0.00003812       0.02080782       0.00337335
Se       1.72476666       2.52770833      14.80982077        4      -0.00010225      -0.00002345      -0.88925932
Se       1.72476666       2.52770833      11.45126797        5      -0.00843029       0.03943139       0.92672392
6
Lattice="3.1841 0.0 0.0 -1.592 2.7575 0.0 0.0 0.0 20.0" Properties=species:S:1:pos:R:3:atom_types:I:1:forces:R:3 a1_shift_crystal=0.3333333333333333 a2_shift_crystal=0.6666666666666666 a1_shift_cartesian="1.0613666666666666 0.0" a2_shift_cartesian="-1.0613333333333332 1.8383333333333332" a1="3.1841 0.0" a2="-1.592 2.7575" total_shift="3.333333333332966e-05 1.8383333333333332" layer_energy="_JSON [[-3.6833802343095527, -0.24477865237230856], [0.0, -7.879796061021787]]" il_dist=6.261088740555788 energy=-11.80795494770365 pbc="T T F"
Mo       0.00000000       0.00000000       6.86945563        0       0.00016212      -0.01475906       0.00671498
S        1.59206666       0.91916667       8.43301196        1      -0.00008507      -0.00001959      -0.29150573
S        1.59206666       0.91916667       5.30589931        2      -0.00008146      -0.00001876       0.26173968
W        0.00003333       1.83833333      13.13054437        3       0.00020531       0.01484349      -0.00034999
Se       1.59210000       2.75750000      14.80982077        4      -0.00010225      -0.00002345      -0.88925932
Se       1.59210000       2.75750000      11.45126797        5      -0.00009865      -0.00002262       0.91266039
6
Lattice="3.1841 0.0 0.0 -1.592 2.7575 0.0 0.0 0.0 20.0" Properties=species:S:1:pos:R:3:atom_types:I:1:forces:R:3 a1_shift_crystal=0.3333333333333333 a2_shift_crystal=0.75 a1_shift_cartesian="1.0613666666666666 0.0" a2_shift_cartesian="-1.194 2.0681249999999998" a1="3.1841 0.0" a2="-1.592 2.7575" total_shift="-0.13263333333333338 2.0681249999999998" layer_energy="_JSON [[-3.6833802343095527, -0.24207336124042725], [0.0, -7.87979606102179]]" il_dist=6.261088740555788 energy=-11.805249656571771 pbc="T T F"
Mo       0.00000000       0.00000000       6.86945563        0      -0.00481846      -0.00590370       0.00817956
S        1.59206666       0.91916667       8.43301196        1      -0.02898739       0.02498826      -0.30499404
S        1.59206666       0.91916667       5.30589931        2      -0.00008146      -0.00001876       0.26173968
W       -0.13263333       2.06812500      13.13054437        3       0.00408626       0.00792310      -0.00239140
Se       1.45943333       2.98729166      14.80982077        4      -0.00010225      -0.00002345      -0.88925932
Se       1.45943333       2.98729166      11.45126797        5       0.02990331      -0.02696544       0.92672553
6
Lattice="3.1841 0.0 0.0 -1.592 2.7575 0.0 0.0 0.0 20.0" Properties=species:S:1:pos:R:3:atom_types:I:1:forces:R:3 a1_shift_crystal=0.3333333333333333 a2_shift_crystal=0.8333333333333334 a1_shift_cartesian="1.0613666666666666 0.0" a2_shift_cartesian="-1.3266666666666669 2.2979166666666666" a1="3.1841 0.0" a2="-1.592 2.7575" total_shift="-0.2653000000000003 2.2979166666666666" layer_energy="_JSON [[-3.6833802343095527, -0.22717073584266317], [0.0, -7.879796061021789]]" il_dist=6.261088740555788 energy=-11.790347031174004 pbc="T T F"
Mo       0.00000000       0.00000000       6.86945563        0      -0.01217748       0.00126695       0.00651936
S        1.59206666       0.91916667       8.43301196        1      -0.07677753       0.03643828      -0.34512558
S        1.59206666       0.91916667       5.30589931        2      -0.00008146      -0.00001876       0.26173968
W       -0.26530000       2.29791667      13.13054437        3       0.01043753       0.00265685      -0.00246269
Se       1.32676666       3.21708333      14.80982077        4      -0.00010225      -0.00002345      -0.88925932
Se       1.32676666       3.21708333      11.45126797        5       0.07870119      -0.04031986       0.96858855
6
Lattice="3.1841 0.0 0.0 -1.592 2.7575 0.0 0.0 0.0 20.0" Properties=species:S:1:pos:R:3:atom_types:I:1:forces:R:3 a1_shift_crystal=0.3333333333333333 a2_shift_crystal=0.9166666666666666 a1_shift_cartesian="1.0613666666666666 0.0" a2_shift_cartesian="-1.4593333333333334 2.527708333333333" a1="3.1841 0.0" a2="-1.592 2.7575" total_shift="-0.3979666666666668 2.527708333333333" layer_energy="_JSON [[-3.6833802343095527, -0.20241317505000686], [0.0, -7.879796061021789]]" il_dist=6.261088740555788 energy=-11.765589470381348 pbc="T T F"
Mo       0.00000000       0.00000000       6.86945563        0      -0.01923124       0.00418353       0.00238132
S        1.59206666       0.91916667       8.43301196        1      -0.13232095       0.02944346      -0.40744377
S        1.59206666       0.91916667       5.30589931        2      -0.00008146      -0.00001876       0.26173968
W       -0.39796667       2.52770833      13.13054437        3       0.01711818       0.00086982      -0.00094965
Se       1.19410000       3.44687500      14.80982077        4      -0.00010225      -0.00002345      -0.88925932
Se       1.19410000       3.44687500      11.45126797        5       0.13461773      -0.03445459       1.03353174
6
Lattice="3.1841 0.0 0.0 -1.592 2.7575 0.0 0.0 0.0 20.0" Properties=species:S:1:pos:R:3:atom_types:I:1:forces:R:3 a1_shift_crystal=0.4166666666666667 a2_shift_crystal=0.0 a1_shift_cartesian="1.3267083333333334 0.0" a2_shift_cartesian="-0.0 0.0" a1="3.1841 0.0" a2="-1.592 2.7575" total_shift="1.3267083333333334 0.0" layer_energy="_JSON [[-3.6833802343095527, -0.21616313964858455], [0.0, -7.879796061021788]]" il_dist=6.261088740555788 energy=-11.779339434979926 pbc="T T F"
Mo       0.00000000       0.00000000       6.86945563        0      -0.01402337       0.00252098       0.00284005
S        1.59206666       0.91916667       8.43301196        1      -0.09576759      -0.00113569      -0.37258796
S        1.59206666       0.91916667       5.30589931        2      -0.00008146      -0.00001876       0.26173968
W        1.32670833       0.00000000      13.13054437        3       0.01333719       0.00346531      -0.00340963
Se       2.91877500       0.91916666      14.80982077        4      -0.00010225      -0.00002345      -0.88925932
Se       2.91877500       0.91916666      11.45126797        5       0.09663749      -0.00480839       1.00067718
6
Lattice="3.1841 0.0 0.0 -1.592 2.7575 0.0 0.0 0.0 20.0" Properties=species:S:1:pos:R:3:atom_types:I:1:forces:R:3 a1_shift_crystal=0.4166666666666667 a2_shift_crystal=0.08333333333333333 a1_shift_cartesian="1.3267083333333334 0.0" a2_shift_cartesian="-0.13266666666666665 0.22979166666666664" a1="3.1841 0.0" a2="-1.592 2.7575" total_shift="1.1940416666666667 0.22979166666666664" layer_energy="_JSON [[-3.6833802343095527, -0.1857731044634419], [0.0, -7.879796061021787]]" il_dist=6.261088740555788 energy=-11.748949399794782 pbc="T T F"
Mo       0.00000000       0.00000000       6.86945563        0      -0.02517787      -0.00218628      -0.01453563
S        1.59206666       0.91916667       8.43301196        1      -0.13292907      -0.03121132      -0.40661570
S        1.59206666       0.91916667       5.30589931        2      -0.00008146      -0.00001876       0.26173968
W        1.19404167       0.22979167      13.13054437        3       0.02523641       0.00679194       0.01141783
Se       2.78610833       1.14895833      14.80982077        4      -0.00010225      -0.00002345      -0.88925932
Se       2.78610833       1.14895833      11.45126797        5       0.13305426       0.02664787       1.03725313
6
Lattice="3.1841 0.0 0.0 -1.592 2.7575 0.0 0.0 0.0 20.0" Properties=species:S:1:pos:R:3:atom_types:I:1:forces:R:3 a1_shift_crystal=0.4166666666666667 a2_shift_crystal=0.16666666666666666 a1_shift_cartesian="1.3267083333333334 0.0" a2_shift_cartesian="-0.2653333333333333 0.4595833333333333" a1="3.1841 0.0" a2="-1.592 2.7575" total_shift="1.061375 0.4595833333333333" layer_energy="_JSON [[-3.6833802343095527, -0.17632637613599147], [0.0, -7.879796061021787]]" il_dist=6.261088740555788 energy=-11.739502671467331 pbc="T T F"
Mo       0.00000000       0.00000000       6.86945563        0      -0.02364882      -0.00951205      -0.01692691
S        1.59206666       0.91916667       8.43301196        1      -0.14489857      -0.06575163      -0.42847867
S        1.59206666       0.91916667       5.30589931        2      -0.00008146      -0.00001876       0.26173968
W        1.06137500       0.45958333      13.13054437        3       0.02493852       0.01176588       0.01240162
Se       2.65344166       1.37875000      14.80982077        4      -0.00010225      -0.00002345      -0.88925932
Se       2.65344166       1.37875000      11.45126797        5       0.14379259       0.06354002       1.06052360
6
Lattice="3.1841 0.0 0.0 -1.592 2.7575 0.0 0.0 0.0 20.0" Properties=species:S:1:pos:R:3:atom_types:I:1:forces:R:3 a1_shift_crystal=0.4166666666666667 a2_shift_crystal=0.25 a1_shift_cartesian="1.3267083333333334 0.0" a2_shift_cartesian="-0.398 0.689375" a1="3.1841 0.0" a2="-1.592 2.7575" total_shift="0.9287083333333334 0.689375" layer_energy="_JSON [[-3.6833802343095527, -0.17632677368996436], [0.0, -7.879796061021787]]" il_dist=6.261088740555788 energy=-11.739503069021305 pbc="T T F"
Mo       0.00000000       0.00000000       6.86945563        0      -0.02001331      -0.01580914      -0.01692686
S        1.59206666       0.91916667       8.43301196        1      -0.12941699      -0.09256660      -0.42847767
S        1.59206666       0.91916667       5.30589931        2      -0.00008146      -0.00001876       0.26173968
W        0.92870833       0.68937500      13.13054437        3       0.02272063       0.01560752       0.01240157
Se       2.52077500       1.60854166      14.80982077        4      -0.00010225      -0.00002345      -0.88925932
Se       2.52077500       1.60854166      11.45126797        5       0.12689339       0.09281044       1.06052260
6
Lattice="3.1841 0.0 0.0 -1.592 2.7575 0.0 0.0 0.0 20.0" Properties=species:S:1:pos:R:3:atom_types:I:1:forces:R:3 a1_shift_crystal=0.4166666666666667 a2_shift_crystal=0.3333333333333333 a1_shift_cartesian="1.3267083333333334 0.0" a2_shift_cartesian="-0.5306666666666666 0.9191666666666666" a1="3.1841 0.0" a2="-1.592 2.7575" total_shift="0.7960416666666668 0.9191666666666666" layer_energy="_JSON [[-3.6833802343095527, -0.18577419173301782], [0.0, -7.879796061021787]]" il_dist=6.261088740555788 energy=-11.748950487064358 pbc="T T F"
Mo       0.00000000       0.00000000       6.86945563        0      -0.01443368      -0.02079633      -0.01453548
S        1.59206666       0.91916667       8.43301196        1      -0.09351961      -0.09947079      -0.40661303
S        1.59206666       0.91916667       5.30589931        2      -0.00008146      -0.00001876       0.26173968
W        0.79604167       0.91916667      13.13054437        3       0.01856213       0.01835255       0.01141769
Se       2.38810833       1.83833333      14.80982077        4      -0.00010225      -0.00002345      -0.88925932
Se       2.38810833       1.83833333      11.45126797        5       0.08957488       0.10195679       1.03725046
6
Lattice="3.1841 0.0 0.0 -1.592 2.7575 0.0 0.0 0.0 20.0" Properties=species:S:1:pos:R:3:atom_types:I:1:forces:R:3 a1_shift_crystal=0.4166666666666667 a2_shift_crystal=0.4166666666666667 a1_shift_cartesian="1.3267083333333334 0.0" a2_shift_cartesian="-0.6633333333333334 1.1489583333333333" a1="3.1841 0.0" a2="-1.592 2.7575" total_shift="0.6633749999999999 1.1489583333333333" layer_energy="_JSON [[-3.6833802343095527, -0.2012502720744458], [0.0, -7.879796061021788]]" il_dist=6.261088740555788 energy=-11.764426567405787 pbc="T T F"
Mo       0.00000000       0.00000000       6.86945563        0      -0.00778121      -0.02329153      -0.01009219
S        1.59206666       0.91916667       8.43301196        1      -0.04889280      -0.08232572      -0.37258445
S        1.59206666       0.91916667       5.30589931        2      -0.00008146      -0.00001876       0.26173968
W        0.66337500       1.14895833      13.13054437        3       0.01273294       0.01951248       0.00952263
Se       2.25544166       2.06812500      14.80982077        4      -0.00010225      -0.00002345      -0.88925932
Se       2.25544166       2.06812500      11.45126797        5       0.04412479       0.08614700       1.00067366
6
Lattice="3.1841 0.0 0.0 -1.592 2.7575 0.0 0.0 0.0 20.0" Properties=species:S:1:pos:R:3:atom_types:I:1:forces:R:3 a1_shift_crystal=0.4166666666666667 a2_shift_crystal=0.5 a1_shift_cartesian="1.3267083333333334 0.0" a2_shift_cartesian="-0.796 1.37875" a1="3.1841 0.0" a2="-1.592 2.7575" total_shift="0.5307083333333333 1.37875" layer_energy="_JSON [[-3.6833802343095527, -0.2176014627939205], [0.0, -7.879796061021787]]" il_dist=6.261088740555788 energy=-11.78077775812526 pbc="T T F"
Mo       0.00000000       0.00000000       6.86945563        0      -0.00123884      -0.02257589      -0.00440164
S        1.59206666       0.91916667       8.43301196        1      -0.00727011      -0.04876174      -0.33942687
S        1.59206666       0.91916667       5.30589931        2      -0.00008146      -0.00001876       0.26173968
W        0.53070833       1.37875000      13.13054437        3       0.00598807       0.01909312       0.00672607
Se       2.12277500       2.29791666      14.80982077        4      -0.00010225      -0.00002345      -0.88925932
Se       2.12277500       2.29791666      11.45126797        5       0.00270460       0.05228673       0.96462209
6
Lattice="3.1841 0.0 0.0 -1.592 2.7575 0.0 0.0 0.0 20.0" Properties=species:S:1:pos:R:3:atom_types:I:1:forces:R:3 a1_shift_crystal=0.4166666666666667 a2_shift_crystal=0.5833333333333334 a1_shift_cartesian="1.3267083333333334 0.0" a2_shift_cartesian="-0.9286666666666668 1.6085416666666668" a1="3.1841 0.0" a2="-1.592 2.7575" total_shift="0.3980416666666666 1.6085416666666668" layer_energy="_JSON [[-3.6833802343095527, -0.23079140405476456], [0.0, -7.879796061021787]]" il_dist=6.261088740555788 energy=-11.793967699386105 pbc="T T F"
Mo       0.00000000       0.00000000       6.86945563        0       0.00381214      -0.01862449       0.00124914
S        1.59206666       0.91916667       8.43301196        1       0.02277134      -0.01321555      -0.31612891
S        1.59206666       0.91916667       5.30589931        2      -0.00008146      -0.00001876       0.26173968
W        0.39804167       1.60854167      13.13054437        3      -0.00002510       0.01673460       0.00336439
Se       1.99010833       2.52770833      14.80982077        4      -0.00010225      -0.00002345      -0.88925932
Se       1.99010833       2.52770833      11.45126797        5      -0.02637466       0.01514767       0.93903502
6
Lattice="3.1841 0.0 0.0 -1.592 2.7575 0.0 0.0 0.0 20.0" Properties=species:S:1:pos:R:3:atom_types:I:1:forces:R:3 a1_shift_crystal=0.4166666666666667 a2_shift_crystal=0.6666666666666666 a1_shift_cartesian="1.3267083333333334 0.0" a2_shift_cartesian="-1.0613333333333332 1.8383333333333332" a1="3.1841 0.0" a2="-1.592 2.7575" total_shift="0.26537500000000014 1.8383333333333332" layer_energy="_JSON [[-3.6833802343095527, -0.2391587092730797], [0.0, -7.879796061021787]]" il_dist=6.261088740555788 energy=-11.80233500460442 pbc="T T F"
Mo       0.00000000       0.00000000       6.86945563        0       0.00632283      -0.01259812       0.00563392
S        1.59206666       0.91916667       8.43301196        1       0.03602355       0.01250652      -0.30499064
S        1.59206666       0.91916667       5.30589931        2      -0.00008146      -0.00001876       0.26173968
W        0.26537500       1.83833333      13.13054437        3      -0.00372984       0.01266740       0.00015424
Se       1.85744166       2.75750000      14.80982077        4      -0.00010225      -0.00002345      -0.88925932
Se       1.85744166       2.75750000      11.45126797        5      -0.03843283      -0.01253357       0.92672213
6
Lattice="3.1841 0.0 0.0 -1.592 2.7575 0.0 0.0 0.0 20.0" Properties=species:S:1:pos:R:3:atom_types:I:1:forces:R:3 a1_shift_crystal=0.4166666666666667 a2_shift_crystal=0.75 a1_shift_cartesian="1.3267083333333334 0.0" a2_shift_cartesian="-1.194 2.0681249999999998" a1="3.1841 0.0" a2="-1.592 2.7575" total_shift="0.13270833333333343 2.0681249999999998" layer_energy="_JSON [[-3.6833802343095527, -0.2420744439009435], [0.0, -7.879796061021789]]" il_dist=6.261088740555788 energy=-11.805250739232285 pbc="T T F"
Mo       0.00000000       0.00000000       6.86945563        0       0.00514298      -0.00590369       0.00817972
S        1.59206666       0.91916667       8.43301196        1       0.02881773       0.02498763      -0.30499148
S        1.59206666       0.91916667       5.30589931        2      -0.00008146      -0.00001876       0.26173968
W        0.13270833       2.06812500      13.13054437        3      -0.00367586       0.00792308      -0.00239157
Se       1.72477500       2.98729166      14.80982077        4      -0.00010225      -0.00002345      -0.88925932
Se       1.72477500       2.98729166      11.45126797        5      -0.03010113      -0.02696481       0.92672297
6
Lattice="3.1841 0.0 0.0 -1.592 2.7575 0.0 0.0 0.0 20.0" Properties=species:S:1:pos:R:3:atom_types:I:1:forces:R:3 a1_shift_crystal=0.4166666666666667 a2_shift_crystal=0.8333333333333334 a1_shift_cartesian="1.3267083333333334 0.0" a2_shift_cartesian="-1.3266666666666669 2.2979166666666666" a1="3.1841 0.0" a2="-1.592 2.7575" total_shift="4.1666666666495544e-05 2.2979166666666666" layer_energy="_JSON [[-3.6833802343095527, -0.2390497369370435], [0.0, -7.879796061021789]]" il_dist=6.261088740555788 energy=-11.802226032268386 pbc="T T F"
Mo       0.00000000       0.00000000       6.86945563        0       0.00016244      -0.00011011       0.00845197
S        1.59206666       0.91916667       8.43301196        1      -0.00008424       0.02637213      -0.31613125
S        1.59206666       0.91916667       5.30589931        2      -0.00008146      -0.00001876       0.26173968
W        0.00004167       2.29791667      13.13054437        3       0.00020505       0.00414318      -0.00383845
Se       1.59210833       3.21708333      14.80982077        4      -0.00010225      -0.00002345      -0.88925932
Se       1.59210833       3.21708333      11.45126797        5      -0.00009953      -0.03036298       0.93903737
6
Lattice="3.1841 0.0 0.0 -1.592 2.7575 0.0 0.0 0.0 20.0" Properties=species:S:1:pos:R:3:atom_types:I:1:forces:R:3 a1_shift_crystal=0.4166666666666667 a2_shift_crystal=0.9166666666666666 a1_shift_cartesian="1.3267083333333334 0.0" a2_shift_cartesian="-1.4593333333333334 2.527708333333333" a1="3.1841 0.0" a2="-1.592 2.7575" total_shift="-0.132625 2.527708333333333" layer_energy="_JSON [[-3.6833802343095527, -0.22994668983636202], [0.0, -7.879796061021789]]" il_dist=6.261088740555788 energy=-11.793122985167704 pbc="T T F"
Mo       0.00000000       0.00000000       6.86945563        0      -0.00710308       0.00317941       0.00634127
S        1.59206666       0.91916667       8.43301196        1      -0.04588892       0.01812869      -0.33943020
S        1.59206666       0.91916667       5.30589931        2      -0.00008146      -0.00001876       0.26173968
W       -0.13262500       2.52770833      13.13054437        3       0.00657224       0.00248338      -0.00401686
Se       1.45944166       3.44687500      14.80982077        4      -0.00010225      -0.00002345      -0.88925932
Se       1.45944166       3.44687500      11.45126797        5       0.04660348      -0.02374926       0.96462544
6
Lattice="3.1841 0.0 0.0 -1.592 2.7575 0.0 0.0 0.0 20.0" Properties=species:S:1:pos:R:3:atom_types:I:1:forces:R:3 a1_shift_crystal=0.5 a2_shift_crystal=0.0 a1_shift_cartesian="1.59205 0.0" a2_shift_cartesian="-0.0 0.0" a1="3.1841 0.0" a2="-1.592 2.7575" total_shift="1.59205 0.0" layer_energy="_JSON [[-3.6833802343095527, -0.230911286660769], [0.0, -7.879796061021787]]" il_dist=6.261088740555788 energy=-11.794087581992109 pbc="T T F"
Mo       0.00000000       0.00000000       6.86945563        0       0.00016296       0.00272613       0.00487566
S        1.59206666       0.91916667       8.43301196        1      -0.00008148      -0.00128543      -0.33622331
S        1.59206666       0.91916667       5.30589931        2      -0.00008146      -0.00001876       0.26173968
W        1.59205000       0.00000000      13.13054437        3       0.00020457       0.00373759      -0.00517135
Se       3.18411666       0.91916666      14.80982077        4      -0.00010225      -0.00002345      -0.88925932
Se       3.18411666       0.91916666      11.45126797        5      -0.00010233      -0.00513608       0.96403864
6
Lattice="3.1841 0.0 0.0 -1.592 2.7575 0.0 0.0 0.0 20.0" Properties=species:S:1:pos:R:3:atom_types:I:1:forces:R:3 a1_shift_crystal=0.5 a2_shift_crystal=0.08333333333333333 a1_shift_cartesian="1.59205 0.0" a2_shift_cartesian="-0.13266666666666665 0.22979166666666664" a1="3.1841 0.0" a2="-1.592 2.7575" total_shift="1.4593833333333333 0.22979166666666664" layer_energy="_JSON [[-3.6833802343095527, -0.2159201459638707], [0.0, -7.879796061021789]]" il_dist=6.261088740555788 energy=-11.779096441295213 pbc="T T F"
Mo       0.00000000       0.00000000       6.86945563        0      -0.01958149      -0.00119295      -0.00868105
S        1.59206666       0.91916667       8.43301196        1      -0.04611277      -0.02027119      -0.33837204
S        1.59206666       0.91916667       5.30589931        2      -0.00008146      -0.00001876       0.26173968
W        1.45938333       0.22979167      13.13054437        3       0.01981736       0.00666670       0.00566919
Se       3.05145000       1.14895833      14.80982077        4      -0.00010225      -0.00002345      -0.88925932
Se       3.05145000       1.14895833      11.45126797        5       0.04606061       0.01483965       0.96890354
6
Lattice="3.1841 0.0 0.0 -1.592 2.7575 0.0 0.0 0.0 20.0" Properties=species:S:1:pos:R:3:atom_types:I:1:forces:R:3 a1_shift_crystal=0.5 a2_shift_crystal=0.16666666666666666 a1_shift_cartesian="1.59205 0.0" a2_shift_cartesian="-0.2653333333333333 0.4595833333333333" a1="3.1841 0.0" a2="-1.592 2.7575" total_shift="1.3267166666666665 0.4595833333333333" layer_energy="_JSON [[-3.6833802343095527, -0.2124624180681891], [0.0, -7.879796061021787]]" il_dist=6.261088740555788 energy=-11.77563871339953 pbc="T T F"
Mo       0.00000000       0.00000000       6.86945563        0      -0.02212629      -0.00746967      -0.01106926
S        1.59206666       0.91916667       8.43301196        1      -0.07735579      -0.03767494      -0.34342630
S        1.59206666       0.91916667       5.30589931        2      -0.00008146      -0.00001876       0.26173968
W        1.32671667       0.45958333      13.13054437        3       0.02285466       0.01060290       0.00619936
Se       2.91878333       1.37875000      14.80982077        4      -0.00010225      -0.00002345      -0.88925932
Se       2.91878333       1.37875000      11.45126797        5       0.07681114       0.03458393       0.97581584
6
Lattice="3.1841 0.0 0.0 -1.592 2.7575 0.0 0.0 0.0 20.0" Properties=species:S:1:pos:R:3:atom_types:I:1:forces:R:3 a1_shift_crystal=0.5 a2_shift_crystal=0.25 a1_shift_cartesian="1.59205 0.0" a2_shift_cartesian="-0.398 0.689375" a1="3.1841 0.0" a2="-1.592 2.7575" total_shift="1.1940499999999998 0.689375" layer_energy="_JSON [[-3.6833802343095527, -0.21083288411923526], [0.0, -7.879796061021787]]" il_dist=6.261088740555788 energy=-11.774009179450575 pbc="T T F"
Mo       0.00000000       0.00000000       6.86945563        0      -0.02143286      -0.01243075      -0.01179243
S        1.59206666       0.91916667       8.43301196        1      -0.08555637      -0.04936775      -0.34603452
S        1.59206666       0.91916667       5.30589931        2      -0.00008146      -0.00001876       0.26173968
W        1.19405000       0.68937500      13.13054437        3       0.02307168       0.01324918       0.00630844
Se       2.78611666       1.60854166      14.80982077        4      -0.00010225      -0.00002345      -0.88925932
Se       2.78611666       1.60854166      11.45126797        5       0.08410127       0.04859153       0.97903816
6
Lattice="3.1841 0.0 0.0 -1.592 2.7575 0.0 0.0 0.0 20.0" Properties=species:S:1:pos:R:3:atom_types:I:1:forces:R:3 a1_shift_crystal=0.5 a2_shift_crystal=0.3333333333333333 a1_shift_cartesian="1.59205 0.0" a2_shift_cartesian="-0.5306666666666666 0.9191666666666666" a1="3.1841 0.0" a2="-1.592 2.7575" total_shift="1.0613833333333333 0.9191666666666666" layer_energy="_JSON [[-3.6833802343095527, -0.21246314664227622], [0.0, -7.879796061021787]]" il_dist=6.261088740555788 energy=-11.775639441973617 pbc="T T F"
Mo       0.00000000       0.00000000       6.86945563        0      -0.01748326      -0.01551189      -0.01106914
S        1.59206666       0.91916667       8.43301196        1      -0.07132970      -0.04811216      -0.34342458
S        1.59206666       0.91916667       5.30589931        2      -0.00008146      -0.00001876       0.26173968
W        1.06138333       0.91916667      13.13054437        3       0.02067148       0.01438443       0.00619925
Se       2.65345000       1.83833333      14.80982077        4      -0.00010225      -0.00002345      -0.88925932
Se       2.65345000       1.83833333      11.45126797        5       0.06832519       0.04928184       0.97581411
6
Lattice="3.1841 0.0 0.0 -1.592 2.7575 0.0 0.0 0.0 20.0" Properties=species:S:1:pos:R:3:atom_types:I:1:forces:R:3 a1_shift_crystal=0.5 a2_shift_crystal=0.4166666666666667 a1_shift_cartesian="1.59205 0.0" a2_shift_cartesian="-0.6633333333333334 1.1489583333333333" a1="3.1841 0.0" a2="-1.592 2.7575" total_shift="0.9287166666666665 1.1489583333333333" layer_energy="_JSON [[-3.6833802343095527, -0.21592142325700028], [0.0, -7.879796061021787]]" il_dist=6.261088740555788 energy=-11.779097718588341 pbc="T T F"
Mo       0.00000000       0.00000000       6.86945563        0      -0.01077513      -0.01644645      -0.00868083
S        1.59206666       0.91916667       8.43301196        1      -0.04063610      -0.02975675      -0.33836906
S        1.59206666       0.91916667       5.30589931        2      -0.00008146      -0.00001876       0.26173968
W        0.92871667       1.14895833      13.13054437        3       0.01574404       0.01372218       0.00566899
Se       2.52078333       2.06812500      14.80982077        4      -0.00010225      -0.00002345      -0.88925932
Se       2.52078333       2.06812500      11.45126797        5       0.03585091       0.03252324       0.96890054
6
Lattice="3.1841 0.0 0.0 -1.592 2.7575 0.0 0.0 0.0 20.0" Properties=species:S:1:pos:R:3:atom_types:I:1:forces:R:3 a1_shift_crystal=0.5 a2_shift_crystal=0.5 a1_shift_cartesian="1.59205 0.0" a2_shift_cartesian="-0.796 1.37875" a1="3.1841 0.0" a2="-1.592 2.7575" total_shift="0.7960499999999999 1.37875" layer_energy="_JSON [[-3.6833802343095527, -0.2193282878377269], [0.0, -7.879796061021787]]" il_dist=6.261088740555788 energy=-11.782504583169068 pbc="T T F"
Mo       0.00000000       0.00000000       6.86945563        0      -0.00263177      -0.01502785      -0.00510505
S        1.59206666       0.91916667       8.43301196        1      -0.00117844       0.00061458      -0.33621987
S        1.59206666       0.91916667       5.30589931        2      -0.00008146      -0.00001876       0.26173968
W        0.79605000       1.37875000      13.13054437        3       0.00852383       0.01192260       0.00480939
Se       2.38811666       2.29791666      14.80982077        4      -0.00010225      -0.00002345      -0.88925932
Se       2.38811666       2.29791666      11.45126797        5      -0.00452991       0.00253289       0.96403518
6
Lattice="3.1841 0.0 0.0 -1.592 2.7575 0.0 0.0 0.0 20.0" Properties=species:S:1:pos:R:3:atom_types:I:1:forces:R:3 a1_shift_crystal=0.5 a2_shift_crystal=0.5833333333333334 a1_shift_cartesian="1.59205 0.0" a2_shift_cartesian="-0.9286666666666668 1.6085416666666668" a1="3.1841 0.0" a2="-1.592 2.7575" total_shift="0.6633833333333332 1.6085416666666668" layer_energy="_JSON [[-3.6833802343095527, -0.22138345035845391], [0.0, -7.879796061021787]]" il_dist=6.261088740555788 energy=-11.784559745689794 pbc="T T F"
Mo       0.00000000       0.00000000       6.86945563        0       0.00516166      -0.01146595      -0.00104688
S        1.59206666       0.91916667       8.43301196        1       0.03853670       0.03057519      -0.33942603
S        1.59206666       0.91916667       5.30589931        2      -0.00008146      -0.00001876       0.26173968
W        0.66338333       1.60854167      13.13054437        3       0.00048595       0.00953917       0.00337128
Se       2.25545000       2.52770833      14.80982077        4      -0.00010225      -0.00002345      -0.88925932
Se       2.25545000       2.52770833      11.45126797        5      -0.04400060      -0.02860620       0.96462128
6
Lattice="3.1841 0.0 0.0 -1.592 2.7575 0.0 0.0 0.0 20.0" Properties=species:S:1:pos:R:3:atom_types:I:1:forces:R:3 a1_shift_crystal=0.5 a2_shift_crystal=0.6666666666666666 a1_shift_cartesian="1.59205 0.0" a2_shift_cartesian="-1.0613333333333332 1.8383333333333332" a1="3.1841 0.0" a2="-1.592 2.7575" total_shift="0.5307166666666667 1.8383333333333332" layer_energy="_JSON [[-3.6833802343095527, -0.22260050141840715], [0.0, -7.879796061021787]]" il_dist=6.261088740555788 energy=-11.785776796749747 pbc="T T F"
Mo       0.00000000       0.00000000       6.86945563        0       0.01103004      -0.00680599       0.00257302
S        1.59206666       0.91916667       8.43301196        1       0.06983592       0.04816924      -0.34511972
S        1.59206666       0.91916667       5.30589931        2      -0.00008146      -0.00001876       0.26173968
W        0.53071667       1.83833333      13.13054437        3      -0.00628389       0.00679581       0.00148362
Se       2.12278333       2.75750000      14.80982077        4      -0.00010225      -0.00002345      -0.88925932
Se       2.12278333       2.75750000      11.45126797        5      -0.07439836      -0.04811684       0.96858272
6
Lattice="3.1841 0.0 0.0 -1.592 2.7575 0.0 0.0 0.0 20.0" Properties=species:S:1:pos:R:3:atom_types:I:1:forces:R:3 a1_shift_crystal=0.5 a2_shift_crystal=0.75 a1_shift_cartesian="1.59205 0.0" a2_shift_cartesian="-1.194 2.0681249999999998" a1="3.1841 0.0" a2="-1.592 2.7575" total_shift="0.39805 2.0681249999999998" layer_energy="_JSON [[-3.6833802343095527, -0.22420272456027665], [0.0, -7.87979606102179]]" il_dist=6.261088740555788 energy=-11.78737901989162 pbc="T T F"
Mo       0.00000000       0.00000000       6.86945563        0       0.01374968      -0.00229318       0.00530583
S        1.59206666       0.91916667       8.43301196        1       0.08454253       0.04883895      -0.34790866
S        1.59206666       0.91916667       5.30589931        2      -0.00008146      -0.00001876       0.26173968
W        0.39805000       2.06812500      13.13054437        3      -0.01010179       0.00427155      -0.00066373
Se       1.99011666       2.98729166      14.80982077        4      -0.00010225      -0.00002345      -0.88925932
Se       1.99011666       2.98729166      11.45126797        5      -0.08800669      -0.05077511       0.97078619
6
Lattice="3.1841 0.0 0.0 -1.592 2.7575 0.0 0.0 0.0 20.0" Properties=species:S:1:pos:R:3:atom_types:I:1:forces:R:3 a1_shift_crystal=0.5 a2_shift_crystal=0.8333333333333334 a1_shift_cartesian="1.59205 0.0" a2_shift_cartesian="-1.3266666666666669 2.2979166666666666" a1="3.1841 0.0" a2="-1.592 2.7575" total_shift="0.2653833333333331 2.2979166666666666" layer_energy="_JSON [[-3.6833802343095527, -0.22717242328765289], [0.0, -7.879796061021789]]" il_dist=6.261088740555788 energy=-11.790348718618995 pbc="T T F"
Mo       0.00000000       0.00000000       6.86945563        0       0.01250252       0.00126704       0.00651954
S        1.59206666       0.91916667       8.43301196        1       0.07660935       0.03643758      -0.34512144
S        1.59206666       0.91916667       5.30589931        2      -0.00008146      -0.00001876       0.26173968
W        0.26538333       2.29791667      13.13054437        3      -0.01002760       0.00265676      -0.00246292
Se       1.85745000       3.21708333      14.80982077        4      -0.00010225      -0.00002345      -0.88925932
Se       1.85745000       3.21708333      11.45126797        5      -0.07890056      -0.04031916       0.96858446
6
Lattice="3.1841 0.0 0.0 -1.592 2.7575 0.0 0.0 0.0 20.0" Properties=species:S:1:pos:R:3:atom_types:I:1:forces:R:3 a1_shift_crystal=0.5 a2_shift_crystal=0.9166666666666666 a1_shift_cartesian="1.59205 0.0" a2_shift_cartesian="-1.4593333333333334 2.527708333333333" a1="3.1841 0.0" a2="-1.592 2.7575" total_shift="0.1327166666666666 2.527708333333333" layer_energy="_JSON [[-3.6833802343095527, -0.22994717388829528], [0.0, -7.879796061021789]]" il_dist=6.261088740555788 energy=-11.793123469219637 pbc="T T F"
Mo       0.00000000       0.00000000       6.86945563        0       0.00742850       0.00317945       0.00634130
S        1.59206666       0.91916667       8.43301196        1       0.04572285       0.01812867      -0.33942901
S        1.59206666       0.91916667       5.30589931        2      -0.00008146      -0.00001876       0.26173968
W        0.13271667       2.52770833      13.13054437        3      -0.00616263       0.00248333      -0.00401693
Se       1.72478333       3.44687500      14.80982077        4      -0.00010225      -0.00002345      -0.88925932
Se       1.72478333       3.44687500      11.45126797        5      -0.04680500      -0.02374924       0.96462428
6
Lattice="3.1841 0.0 0.0 -1.592 2.7575 0.0 0.0 0.0 20.0" Properties=species:S:1:pos:R:3:atom_types:I:1:forces:R:3 a1_shift_crystal=0.5833333333333334 a2_shift_crystal=0.0 a1_shift_cartesian="1.8573916666666668 0.0" a2_shift_cartesian="-0.0 0.0" a1="3.1841 0.0" a2="-1.592 2.7575" total_shift="1.8573916666666668 0.0" layer_energy="_JSON [[-3.6833802343095527, -0.2161631301029404], [0.0, -7.879796061021789]]" il_dist=6.261088740555788 energy=-11.779339425434282 pbc="T T F"
Mo       0.00000000       0.00000000       6.86945563        0       0.01434928       0.00252101       0.00284000
S        1.59206666       0.91916667       8.43301196        1       0.09560464      -0.00113543      -0.37258794
S        1.59206666       0.91916667       5.30589931        2      -0.00008146      -0.00001876       0.26173968
W        1.85739167       0.00000000      13.13054437        3      -0.01292808       0.00346525      -0.00340966
Se       3.44945833       0.91916666      14.80982077        4      -0.00010225      -0.00002345      -0.88925932
Se       3.44945833       0.91916666      11.45126797        5      -0.09684213      -0.00480861       1.00067725
6
Lattice="3.1841 0.0 0.0 -1.592 2.7575 0.0 0.0 0.0 20.0" Properties=species:S:1:pos:R:3:atom_types:I:1:forces:R:3 a1_shift_crystal=0.5833333333333334 a2_shift_crystal=0.08333333333333333 a1_shift_cartesian="1.8573916666666668 0.0" a2_shift_cartesian="-0.13266666666666665 0.22979166666666664" a1="3.1841 0.0" a2="-1.592 2.7575" total_shift="1.724725 0.22979166666666664" layer_energy="_JSON [[-3.6833802343095527, -0.21970130296807133], [0.0, -7.879796061021789]]" il_dist=6.261088740555788 energy=-11.782877598299413 pbc="T T F"
Mo       0.00000000       0.00000000       6.86945563        0      -0.00783925      -0.00118084      -0.00532640
S        1.59206666       0.91916667       8.43301196        1       0.04595293      -0.02027120      -0.33837322
S        1.59206666       0.91916667       5.30589931        2      -0.00008146      -0.00001876       0.26173968
W        1.72472500       0.22979167      13.13054437        3       0.00833841       0.00665457       0.00231450
Se       3.31679166       1.14895833      14.80982077        4      -0.00010225      -0.00002345      -0.88925932
Se       3.31679166       1.14895833      11.45126797        5      -0.04626836       0.01483969       0.96890476
6
Lattice="3.1841 0.0 0.0 -1.592 2.7575 0.0 0.0 0.0 20.0" Properties=species:S:1:pos:R:3:atom_types:I:1:forces:R:3 a1_shift_crystal=0.5833333333333334 a2_shift_crystal=0.16666666666666666 a1_shift_cartesian="1.8573916666666668 0.0" a2_shift_cartesian="-0.2653333333333333 0.4595833333333333" a1="3.1841 0.0" a2="-1.592 2.7575" total_shift="1.5920583333333336 0.4595833333333333" layer_energy="_JSON [[-3.6833802343095527, -0.22772287167056957], [0.0, -7.879796061021787]]" il_dist=6.261088740555788 energy=-11.79089916700191 pbc="T T F"
Mo       0.00000000       0.00000000       6.86945563        0      -0.01417342      -0.00638097      -0.00647560
S        1.59206666       0.91916667       8.43301196        1      -0.00007869      -0.02755292      -0.31428572
S        1.59206666       0.91916667       5.30589931        2      -0.00008146      -0.00001876       0.26173968
W        1.59205833       0.45958333      13.13054437        3       0.01454091       0.00973329       0.00151888
Se       3.18412500       1.37875000      14.80982077        4      -0.00010225      -0.00002345      -0.88925932
Se       3.18412500       1.37875000      11.45126797        5      -0.00010508       0.02424281       0.94676208
6
Lattice="3.1841 0.0 0.0 -1.592 2.7575 0.0 0.0 0.0 20.0" Properties=species:S:1:pos:R:3:atom_types:I:1:forces:R:3 a1_shift_crystal=0.5833333333333334 a2_shift_crystal=0.25 a1_shift_cartesian="1.8573916666666668 0.0" a2_shift_cartesian="-0.398 0.689375" a1="3.1841 0.0" a2="-1.592 2.7575" total_shift="1.4593916666666669 0.689375" layer_energy="_JSON [[-3.6833802343095527, -0.23165375352056863], [0.0, -7.879796061021787]]" il_dist=6.261088740555788 energy=-11.794830048851908 pbc="T T F"
Mo       0.00000000       0.00000000       6.86945563        0      -0.01762115      -0.00970241      -0.00709673
S        1.59206666       0.91916667       8.43301196        1      -0.02912131      -0.02529907      -0.30288457
S        1.59206666       0.91916667       5.30589931        2      -0.00008146      -0.00001876       0.26173968
W        1.45939167       0.68937500      13.13054437        3       0.01824059       0.01084584       0.00126621
Se       3.05145833       1.60854166      14.80982077        4      -0.00010225      -0.00002345      -0.88925932
Se       3.05145833       1.60854166      11.45126797        5       0.02868559       0.02419785       0.93623473
6
Lattice="3.1841 0.0 0.0 -1.592 2.7575 0.0 0.0 0.0 20.0" Properties=species:S:1:pos:R:3:atom_types:I:1:forces:R:3 a1_shift_crystal=0.5833333333333334 a2_shift_crystal=0.3333333333333333 a1_shift_cartesian="1.8573916666666668 0.0" a2_shift_cartesian="-0.5306666666666666 0.9191666666666666" a1="3.1841 0.0" a2="-1.592 2.7575" total_shift="1.3267250000000002 0.9191666666666666" layer_energy="_JSON [[-3.6833802343095527, -0.23165411427740637], [0.0, -7.879796061021787]]" il_dist=6.261088740555788 energy=-11.794830409608746 pbc="T T F"
Mo       0.00000000       0.00000000       6.86945563        0      -0.01716414      -0.01049401      -0.00709666
S        1.59206666       0.91916667       8.43301196        1      -0.03649402      -0.01252889      -0.30288373
S        1.59206666       0.91916667       5.30589931        2      -0.00008146      -0.00001876       0.26173968
W        1.32672500       0.91916667      13.13054437        3       0.01857471       0.01026714       0.00126615
Se       2.91879166       1.83833333      14.80982077        4      -0.00010225      -0.00002345      -0.88925932
Se       2.91879166       1.83833333      11.45126797        5       0.03526717       0.01279797       0.93623389
6
Lattice="3.1841 0.0 0.0 -1.592 2.7575 0.0 0.0 0.0 20.0" Properties=species:S:1:pos:R:3:atom_types:I:1:forces:R:3 a1_shift_crystal=0.5833333333333334 a2_shift_crystal=0.4166666666666667 a1_shift_cartesian="1.8573916666666668 0.0" a2_shift_cartesian="-0.6633333333333334 1.1489583333333333" a1="3.1841 0.0" a2="-1.592 2.7575" total_shift="1.1940583333333334 1.1489583333333333" layer_energy="_JSON [[-3.6833802343095527, -0.22772389094649487], [0.0, -7.879796061021787]]" il_dist=6.261088740555788 energy=-11.790900186277835 pbc="T T F"
Mo       0.00000000       0.00000000       6.86945563        0      -0.01256383      -0.00916894      -0.00647541
S        1.59206666       0.91916667       8.43301196        1      -0.02392437       0.01374967      -0.31428338
S        1.59206666       0.91916667       5.30589931        2      -0.00008146      -0.00001876       0.26173968
W        1.19405833       1.14895833      13.13054437        3       0.01576136       0.00761940       0.00151871
Se       2.78612500       2.06812500      14.80982077        4      -0.00010225      -0.00002345      -0.88925932
Se       2.78612500       2.06812500      11.45126797        5       0.02091055      -0.01215791       0.94675972
6
Lattice="3.1841 0.0 0.0 -1.592 2.7575 0.0 0.0 0.0 20.0" Properties=species:S:1:pos:R:3:atom_types:I:1:forces:R:3 a1_shift_crystal=0.5833333333333334 a2_shift_crystal=0.5 a1_shift_cartesian="1.8573916666666668 0.0" a2_shift_cartesian="-0.796 1.37875" a1="3.1841 0.0" a2="-1.592 2.7575" total_shift="1.0613916666666667 1.37875" layer_energy="_JSON [[-3.6833802343095527, -0.21970275977116052], [0.0, -7.879796061021787]]" il_dist=6.261088740555788 energy=-11.782879055102502 pbc="T T F"
Mo       0.00000000       0.00000000       6.86945563        0      -0.00489330      -0.00628345      -0.00532612
S        1.59206666       0.91916667       8.43301196        1       0.00539768       0.04997328      -0.33836988
S        1.59206666       0.91916667       5.30589931        2      -0.00008146      -0.00001876       0.26173968
W        1.06139167       1.37875000      13.13054437        3       0.00999384       0.00378721       0.00231426
Se       2.65345833       2.29791666      14.80982077        4      -0.00010225      -0.00002345      -0.88925932
Se       2.65345833       2.29791666      11.45126797        5      -0.01031451      -0.04743481       0.96890139
6
Lattice="3.1841 0.0 0.0 -1.592 2.7575 0.0 0.0 0.0 20.0" Properties=species:S:1:pos:R:3:atom_types:I:1:forces:R:3 a1_shift_crystal=0.5833333333333334 a2_shift_crystal=0.5833333333333334 a1_shift_cartesian="1.8573916666666668 0.0" a2_shift_cartesian="-0.9286666666666668 1.6085416666666668" a1="3.1841 0.0" a2="-1.592 2.7575" total_shift="0.928725 1.6085416666666668" layer_energy="_JSON [[-3.6833802343095527, -0.20851151475038343], [0.0, -7.879796061021787]]" il_dist=6.261088740555788 energy=-11.771687810081723 pbc="T T F"
Mo       0.00000000       0.00000000       6.86945563        0       0.00417566      -0.00258227      -0.00366046
S        1.59206666       0.91916667       8.43301196        1       0.04679551       0.08340502      -0.37258444
S        1.59206666       0.91916667       5.30589931        2      -0.00008146      -0.00001876       0.26173968
W        0.92872500       1.60854167      13.13054437        3       0.00182977       0.00062827       0.00309084
Se       2.52079166       2.52770833      14.80982077        4      -0.00010225      -0.00002345      -0.88925932
Se       2.52079166       2.52770833      11.45126797        5      -0.05261722      -0.08140880       1.00067371
6
Lattice="3.1841 0.0 0.0 -1.592 2.7575 0.0 0.0 0.0 20.0" Properties=species:S:1:pos:R:3:atom_types:I:1:forces:R:3 a1_shift_crystal=0.5833333333333334 a2_shift_crystal=0.6666666666666666 a1_shift_cartesian="1.8573916666666668 0.0" a2_shift_cartesian="-1.0613333333333332 1.8383333333333332" a1="3.1841 0.0" a2="-1.592 2.7575" total_shift="0.7960583333333335 1.8383333333333332" layer_energy="_JSON [[-3.6833802343095527, -0.19751616743485262], [0.0, -7.879796061021787]]" il_dist=6.261088740555788 energy=-11.760692462766192 pbc="T T F"
Mo       0.00000000       0.00000000       6.86945563        0       0.01250389       0.00104344      -0.00177874
S        1.59206666       0.91916667       8.43301196        1       0.09155273       0.09976952      -0.40743765
S        1.59206666       0.91916667       5.30589931        2      -0.00008146      -0.00001876       0.26173968
W        0.79605833       1.83833333      13.13054437        3      -0.00659298      -0.00129528       0.00321035
Se       2.38812500       2.75750000      14.80982077        4      -0.00010225      -0.00002345      -0.88925932
Se       2.38812500       2.75750000      11.45126797        5      -0.09727992      -0.09947547       1.03352568
6
Lattice="3.1841 0.0 0.0 -1.592 2.7575 0.0 0.0 0.0 20.0" Properties=species:S:1:pos:R:3:atom_types:I:1:forces:R:3 a1_shift_crystal=0.5833333333333334 a2_shift_crystal=0.75 a1_shift_cartesian="1.8573916666666668 0.0" a2_shift_cartesian="-1.194 2.0681249999999998" a1="3.1841 0.0" a2="-1.592 2.7575" total_shift="0.6633916666666668 2.0681249999999998" layer_energy="_JSON [[-3.6833802343095527, -0.1913198731930792], [0.0, -7.879796061021789]]" il_dist=6.261088740555788 energy=-11.75449616852442 pbc="T T F"
Mo       0.00000000       0.00000000       6.86945563        0       0.01851034       0.00348860      -0.00004935
S        1.59206666       0.91916667       8.43301196        1       0.12773882       0.09208226      -0.42969622
S        1.59206666       0.91916667       5.30589931        2      -0.00008146      -0.00001876       0.26173968
W        0.66339167       2.06812500      13.13054437        3      -0.01328394      -0.00180212       0.00253528
Se       2.25545833       2.98729166      14.80982077        4      -0.00010225      -0.00002345      -0.88925932
Se       2.25545833       2.98729166      11.45126797        5      -0.13278150      -0.09372652       1.05472994
6
Lattice="3.1841 0.0 0.0 -1.592 2.7575 0.0 0.0 0.0 20.0" Properties=species:S:1:pos:R:3:atom_types:I:1:forces:R:3 a1_shift_crystal=0.5833333333333334 a2_shift_crystal=0.8333333333333334 a1_shift_cartesian="1.8573916666666668 0.0" a2_shift_cartesian="-1.3266666666666669 2.2979166666666666" a1="3.1841 0.0" a2="-1.592 2.7575" total_shift="0.5307249999999999 2.2979166666666666" layer_energy="_JSON [[-3.6833802343095527, -0.19300697961685426], [0.0, -7.879796061021789]]" il_dist=6.261088740555788 energy=-11.756183274948196 pbc="T T F"
Mo       0.00000000       0.00000000       6.86945563        0       0.02099228       0.00463827       0.00138300
S        1.59206666       0.91916667       8.43301196        1       0.14359106       0.06462530      -0.42969722
S        1.59206666       0.91916667       5.30589931        2      -0.00008146      -0.00001876       0.26173968
W        0.53072500       2.29791667      13.13054437        3      -0.01680791      -0.00114692       0.00110291
Se       2.12279166       3.21708333      14.80982077        4      -0.00010225      -0.00002345      -0.88925932
Se       2.12279166       3.21708333      11.45126797        5      -0.14759171      -0.06807443       1.05473095
6
Lattice="3.1841 0.0 0.0 -1.592 2.7575 0.0 0.0 0.0 20.0" Properties=species:S:1:pos:R:3:atom_types:I:1:forces:R:3 a1_shift_crystal=0.5833333333333334 a2_shift_crystal=0.9166666666666666 a1_shift_cartesian="1.8573916666666668 0.0" a2_shift_cartesian="-1.4593333333333334 2.527708333333333" a1="3.1841 0.0" a2="-1.592 2.7575" total_shift="0.3980583333333334 2.527708333333333" layer_energy="_JSON [[-3.6833802343095527, -0.2024145354334375], [0.0, -7.879796061021789]]" il_dist=6.261088740555788 energy=-11.76559083076478 pbc="T T F"
Mo       0.00000000       0.00000000       6.86945563        0       0.01955681       0.00418363       0.00238141
S        1.59206666       0.91916667       8.43301196        1       0.13215535       0.02944342      -0.40744031
S        1.59206666       0.91916667       5.30589931        2      -0.00008146      -0.00001876       0.26173968
W        0.39805833       2.52770833      13.13054437        3      -0.01670877       0.00086967      -0.00094983
Se       1.99012500       3.44687500      14.80982077        4      -0.00010225      -0.00002345      -0.88925932
Se       1.99012500       3.44687500      11.45126797        5      -0.13481967      -0.03445451       1.03352838
6
Lattice="3.1841 0.0 0.0 -1.592 2.7575 0.0 0.0 0.0 20.0" Properties=species:S:1:pos:R:3:atom_types:I:1:forces:R:3 a1_shift_crystal=0.6666666666666666 a2_shift_crystal=0.0 a1_shift_cartesian="2.122733333333333 0.0" a2_shift_cartesian="-0.0 0.0" a1="3.1841 0.0" a2="-1.592 2.7575" total_shift="2.122733333333333 0.0" layer_energy="_JSON [[-3.6833802343095527, -0.17414653219030246], [0.0, -7.879796061021789]]" il_dist=6.261088740555788 energy=-11.737322827521645 pbc="T T F"
Mo       0.00000000       0.00000000       6.86945563        0       0.02338636       0.00192629      -0.00246308
S        1.59206666       0.91916667       8.43301196        1       0.17698211      -0.00075587      -0.47794699
S        1.59206666       0.91916667       5.30589931        2      -0.00008146      -0.00001876       0.26173968
W        2.12273333       0.00000000      13.13054437        3      -0.02122132       0.00274630       0.00114778
Se       3.71480000       0.91916666      14.80982077        4      -0.00010225      -0.00002345      -0.88925932
Se       3.71480000       0.91916666      11.45126797        5      -0.17896344      -0.00387449       1.10678193
6
Lattice="3.1841 0.0 0.0 -1.592 2.7575 0.0 0.0 0.0 20.0" Properties=species:S:1:pos:R:3:atom_types:I:1:forces:R:3 a1_shift_crystal=0.6666666666666666 a2_shift_crystal=0.08333333333333333 a1_shift_cartesian="2.122733333333333 0.0" a2_shift_cartesian="-0.13266666666666665 0.22979166666666664" a1="3.1841 0.0" a2="-1.592 2.7575" total_shift="1.9900666666666664 0.22979166666666664" layer_energy="_JSON [[-3.6833802343095527, -0.19599998176584843], [0.0, -7.879796061021787]]" il_dist=6.261088740555788 energy=-11.75917627709719 pbc="T T F"
Mo       0.00000000       0.00000000       6.86945563        0       0.00564406      -0.00238748      -0.00550386
S        1.59206666       0.91916667       8.43301196        1       0.13276879      -0.03121136      -0.40661913
S        1.59206666       0.91916667       5.30589931        2      -0.00008146      -0.00001876       0.26173968
W        1.99006667       0.22979167      13.13054437        3      -0.00496764       0.00699308       0.00238598
Se       3.58213333       1.14895833      14.80982077        4      -0.00010225      -0.00002345      -0.88925932
Se       3.58213333       1.14895833      11.45126797        5      -0.13326150       0.02664798       1.03725666
6
Lattice="3.1841 0.0 0.0 -1.592 2.7575 0.0 0.0 0.0 20.0" Properties=species:S:1:pos:R:3:atom_types:I:1:forces:R:3 a1_shift_crystal=0.6666666666666666 a2_shift_crystal=0.16666666666666666 a1_shift_cartesian="2.122733333333333 0.0" a2_shift_cartesian="-0.2653333333333333 0.4595833333333333" a1="3.1841 0.0" a2="-1.592 2.7575" total_shift="1.8573999999999997 0.4595833333333333" layer_energy="_JSON [[-3.6833802343095527, -0.21970608277393766], [0.0, -7.879796061021787]]" il_dist=6.261088740555788 energy=-11.782882378105278 pbc="T T F"
Mo       0.00000000       0.00000000       6.86945563        0      -0.00221419      -0.00710741      -0.00465859
S        1.59206666       0.91916667       8.43301196        1       0.07719808      -0.03767563      -0.34343044
S        1.59206666       0.91916667       5.30589931        2      -0.00008146      -0.00001876       0.26173968
W        1.85740000       0.45958333      13.13054437        3       0.00222080       0.01024059      -0.00021134
Se       3.44946666       1.37875000      14.80982077        4      -0.00010225      -0.00002345      -0.88925932
Se       3.44946666       1.37875000      11.45126797        5      -0.07702097       0.03458466       0.97582002
6
Lattice="3.1841 0.0 0.0 -1.592 2.7575 0.0 0.0 0.0 20.0" Properties=species:S:1:pos:R:3:atom_types:I:1:forces:R:3 a1_shift_crystal=0.6666666666666666 a2_shift_crystal=0.25 a1_shift_cartesian="2.122733333333333 0.0" a2_shift_cartesian="-0.398 0.689375" a1="3.1841 0.0" a2="-1.592 2.7575" total_shift="1.724733333333333 0.689375" layer_energy="_JSON [[-3.6833802343095527, -0.2352948489312995], [0.0, -7.879796061021788]]" il_dist=6.261088740555788 energy=-11.79847114426264 pbc="T T F"
Mo       0.00000000       0.00000000       6.86945563        0      -0.00890979      -0.00889527      -0.00387784
S        1.59206666       0.91916667       8.43301196        1       0.02896512      -0.02529969      -0.30288714
S        1.59206666       0.91916667       5.30589931        2      -0.00008146      -0.00001876       0.26173968
W        1.72473333       0.68937500      13.13054437        3       0.00902530       0.01003871      -0.00195269
Se       3.31680000       1.60854166      14.80982077        4      -0.00010225      -0.00002345      -0.88925932
Se       3.31680000       1.60854166      11.45126797        5      -0.02889691       0.02419847       0.93623731
6
Lattice="3.1841 0.0 0.0 -1.592 2.7575 0.0 0.0 0.0 20.0" Properties=species:S:1:pos:R:3:atom_types:I:1:forces:R:3 a1_shift_crystal=0.6666666666666666 a2_shift_crystal=0.3333333333333333 a1_shift_cartesian="2.122733333333333 0.0" a2_shift_cartesian="-0.5306666666666666 0.9191666666666666" a1="3.1841 0.0" a2="-1.592 2.7575" total_shift="1.5920666666666665 0.9191666666666666" layer_energy="_JSON [[-3.6833802343095527, -0.2405498861258203], [0.0, -7.879796061021789]]" il_dist=6.261088740555788 energy=-11.803726181457161 pbc="T T F"
Mo       0.00000000       0.00000000       6.86945563        0      -0.01265054      -0.00736043      -0.00355368
S        1.59206666       0.91916667       8.43301196        1      -0.00007786      -0.00001794      -0.28935672
S        1.59206666       0.91916667       5.30589931        2      -0.00008146      -0.00001876       0.26173968
W        1.59206667       0.91916667      13.13054437        3       0.01301802       0.00744487      -0.00249927
Se       3.18413333       1.83833333      14.80982077        4      -0.00010225      -0.00002345      -0.88925932
Se       3.18413333       1.83833333      11.45126797        5      -0.00010590      -0.00002429       0.92292931
6
Lattice="3.1841 0.0 0.0 -1.592 2.7575 0.0 0.0 0.0 20.0" Properties=species:S:1:pos:R:3:atom_types:I:1:forces:R:3 a1_shift_crystal=0.6666666666666666 a2_shift_crystal=0.4166666666666667 a1_shift_cartesian="2.122733333333333 0.0" a2_shift_cartesian="-0.6633333333333334 1.1489583333333333" a1="3.1841 0.0" a2="-1.592 2.7575" total_shift="1.4593999999999996 1.1489583333333333" layer_energy="_JSON [[-3.6833802343095527, -0.23529554483851073], [0.0, -7.879796061021787]]" il_dist=6.261088740555788 energy=-11.798471840169851 pbc="T T F"
Mo       0.00000000       0.00000000       6.86945563        0      -0.01210930      -0.00335339      -0.00387772
S        1.59206666       0.91916667       8.43301196        1      -0.00745052       0.03777502      -0.30288553
S        1.59206666       0.91916667       5.30589931        2      -0.00008146      -0.00001876       0.26173968
W        1.45940000       1.14895833      13.13054437        3       0.01326791       0.00269012      -0.00195280
Se       3.05146666       2.06812500      14.80982077        4      -0.00010225      -0.00002345      -0.88925932
Se       3.05146666       2.06812500      11.45126797        5       0.00647563      -0.03706953       0.93623569
6
Lattice="3.1841 0.0 0.0 -1.592 2.7575 0.0 0.0 0.0 20.0" Properties=species:S:1:pos:R:3:atom_types:I:1:forces:R:3 a1_shift_crystal=0.6666666666666666 a2_shift_crystal=0.5 a1_shift_cartesian="2.122733333333333 0.0" a2_shift_cartesian="-0.796 1.37875" a1="3.1841 0.0" a2="-1.592 2.7575" total_shift="1.326733333333333 1.37875" layer_energy="_JSON [[-3.6833802343095527, -0.2197073567377854], [0.0, -7.879796061021787]]" il_dist=6.261088740555788 energy=-11.782883652069126 pbc="T T F"
Mo       0.00000000       0.00000000       6.86945563        0      -0.00721310       0.00155127      -0.00465837
S        1.59206666       0.91916667       8.43301196        1       0.00594857       0.08573392      -0.34342747
S        1.59206666       0.91916667       5.30589931        2      -0.00008146      -0.00001876       0.26173968
W        1.32673333       1.37875000      13.13054437        3       0.01004042      -0.00330376      -0.00021154
Se       2.91880000       2.29791666      14.80982077        4      -0.00010225      -0.00002345      -0.88925932
Se       2.91880000       2.29791666      11.45126797        5      -0.00859217      -0.08393922       0.97581702
6
Lattice="3.1841 0.0 0.0 -1.592 2.7575 0.0 0.0 0.0 20.0" Properties=species:S:1:pos:R:3:atom_types:I:1:forces:R:3 a1_shift_crystal=0.6666666666666666 a2_shift_crystal=0.5833333333333334 a1_shift_cartesian="2.122733333333333 0.0" a2_shift_cartesian="-0.9286666666666668 1.6085416666666668" a1="3.1841 0.0" a2="-1.592 2.7575" total_shift="1.1940666666666664 1.6085416666666668" layer_energy="_JSON [[-3.6833802343095527, -0.19600156182998063], [0.0, -7.879796061021787]]" il_dist=6.261088740555788 energy=-11.75917785716132 pbc="T T F"
Mo       0.00000000       0.00000000       6.86945563        0       0.00080365       0.00599681      -0.00550359
S        1.59206666       0.91916667       8.43301196        1       0.03933236       0.13062746      -0.40661542
S        1.59206666       0.91916667       5.30589931        2      -0.00008146      -0.00001876       0.26173968
W        1.19406667       1.60854167      13.13054437        3       0.00363373      -0.00790544       0.00238573
Se       2.78613333       2.52770833      14.80982077        4      -0.00010225      -0.00002345      -0.88925932
Se       2.78613333       2.52770833      11.45126797        5      -0.04358602      -0.12867661       1.03725292
6
Lattice="3.1841 0.0 0.0 -1.592 2.7575 0.0 0.0 0.0 20.0" Properties=species:S:1:pos:R:3:atom_types:I:1:forces:R:3 a1_shift_crystal=0.6666666666666666 a2_shift_crystal=0.6666666666666666 a1_shift_cartesian="2.122733333333333 0.0" a2_shift_cartesian="-1.0613333333333332 1.8383333333333332" a1="3.1841 0.0" a2="-1.592 2.7575" total_shift="1.0614 1.8383333333333332" layer_energy="_JSON [[-3.6833802343095527, -0.16992291775071988], [0.0, -7.879796061021787]]" il_dist=6.261088740555788 energy=-11.73309921308206 pbc="T T F"
Mo       0.00000000       0.00000000       6.86945563        0       0.00960140       0.00868345      -0.00596425
S        1.59206666       0.91916667       8.43301196        1       0.08781408       0.15368970      -0.47794355
S        1.59206666       0.91916667       5.30589931        2      -0.00008146      -0.00001876       0.26173968
W        1.06140000       1.83833333      13.13054437        3      -0.00436169      -0.00933639       0.00464899
Se       2.65346666       2.75750000      14.80982077        4      -0.00010225      -0.00002345      -0.88925932
Se       2.65346666       2.75750000      11.45126797        5      -0.09287006      -0.15299454       1.10677846
6
Lattice="3.1841 0.0 0.0 -1.592 2.7575 0.0 0.0 0.0 20.0" Properties=species:S:1:pos:R:3:atom_types:I:1:forces:R:3 a1_shift_crystal=0.6666666666666666 a2_shift_crystal=0.75 a1_shift_cartesian="2.122733333333333 0.0" a2_shift_cartesian="-1.194 2.0681249999999998" a1="3.1841 0.0" a2="-1.592 2.7575" total_shift="0.9287333333333332 2.0681249999999998" layer_energy="_JSON [[-3.6833802343095527, -0.1499285055188357], [0.0, -7.879796061021789]]" il_dist=6.261088740555788 energy=-11.713104800850179 pbc="T T F"
Mo       0.00000000       0.00000000       6.86945563        0       0.01731950       0.00937527      -0.00592912
S        1.59206666       0.91916667       8.43301196        1       0.13960061       0.14358541      -0.53480779
S        1.59206666       0.91916667       5.30589931        2      -0.00008146      -0.00001876       0.26173968
W        0.92873333       2.06812500      13.13054437        3      -0.01199943      -0.00829903       0.00581981
Se       2.52080000       2.98729166      14.80982077        4      -0.00010225      -0.00002345      -0.88925932
Se       2.52080000       2.98729166      11.45126797        5      -0.14473696      -0.14461943       1.16243674
6
Lattice="3.1841 0.0 0.0 -1.592 2.7575 0.0 0.0 0.0 20.0" Properties=species:S:1:pos:R:3:atom_types:I:1:forces:R:3 a1_shift_crystal=0.6666666666666666 a2_shift_crystal=0.8333333333333334 a1_shift_cartesian="2.122733333333333 0.0" a2_shift_cartesian="-1.3266666666666669 2.2979166666666666" a1="3.1841 0.0" a2="-1.592 2.7575" total_shift="0.7960666666666663 2.2979166666666666" layer_energy="_JSON [[-3.6833802343095527, -0.1431372365620444], [0.0, -7.879796061021789]]" il_dist=6.261088740555788 energy=-11.706313531893386 pbc="T T F"
Mo       0.00000000       0.00000000       6.86945563        0       0.02261928       0.00818995      -0.00533636
S        1.59206666       0.91916667       8.43301196        1       0.17948148       0.10365076      -0.55653052
S        1.59206666       0.91916667       5.30589931        2      -0.00008146      -0.00001876       0.26173968
W        0.79606667       2.29791667      13.13054437        3      -0.01782420      -0.00554926       0.00563284
Se       2.38813333       3.21708333      14.80982077        4      -0.00010225      -0.00002345      -0.88925932
Se       2.38813333       3.21708333      11.45126797        5      -0.18409285      -0.10624924       1.18375368
6
Lattice="3.1841 0.0 0.0 -1.592 2.7575 0.0 0.0 0.0 20.0" Properties=species:S:1:pos:R:3:atom_types:I:1:forces:R:3 a1_shift_crystal=0.6666666666666666 a2_shift_crystal=0.9166666666666666 a1_shift_cartesian="2.122733333333333 0.0" a2_shift_cartesian="-1.4593333333333334 2.527708333333333" a1="3.1841 0.0" a2="-1.592 2.7575" total_shift="0.6633999999999998 2.527708333333333" layer_energy="_JSON [[-3.6833802343095527, -0.15211486224124707], [0.0, -7.879796061021789]]" il_dist=6.261088740555788 energy=-11.715291157572588 pbc="T T F"
Mo       0.00000000       0.00000000       6.86945563        0       0.02480108       0.00552686      -0.00411912
S        1.59206666       0.91916667       8.43301196        1       0.19412500       0.04914517      -0.53480986
S        1.59206666       0.91916667       5.30589931        2      -0.00008146      -0.00001876       0.26173968
W        0.66340000       2.52770833      13.13054437        3      -0.02109835      -0.00164927       0.00400979
Se       2.25546666       3.44687500      14.80982077        4      -0.00010225      -0.00002345      -0.88925932
Se       2.25546666       3.44687500      11.45126797        5      -0.19764401      -0.05298053       1.16243883
6
Lattice="3.1841 0.0 0.0 -1.592 2.7575 0.0 0.0 0.0 20.0" Properties=species:S:1:pos:R:3:atom_types:I:1:forces:R:3 a1_shift_crystal=0.75 a2_shift_crystal=0.0 a1_shift_cartesian="2.3880749999999997 0.0" a2_shift_cartesian="-0.0 0.0" a1="3.1841 0.0" a2="-1.592 2.7575" total_shift="2.3880749999999997 0.0" layer_energy="_JSON [[-3.6833802343095527, -0.11416622964568451], [0.0, -7.879796061021789]]" il_dist=6.261088740555788 energy=-11.677342524977027 pbc="T T F"
Mo       0.00000000       0.00000000       6.86945563        0       0.02424076       0.00108539      -0.00923572
S        1.59206666       0.91916667       8.43301196        1       0.21674543      -0.00035472      -0.63376225
S        1.59206666       0.91916667       5.30589931        2      -0.00008146      -0.00001876       0.26173968
W        2.38807500       0.00000000      13.13054437        3      -0.02191630       0.00186337       0.00694244
Se       3.98014166       0.91916666      14.80982077        4      -0.00010225      -0.00002345      -0.88925932
Se       3.98014166       0.91916666      11.45126797        5      -0.21888617      -0.00255181       1.26357516
6
Lattice="3.1841 0.0 0.0 -1.592 2.7575 0.0 0.0 0.0 20.0" Properties=species:S:1:pos:R:3:atom_types:I:1:forces:R:3 a1_shift_crystal=0.75 a2_shift_crystal=0.08333333333333333 a1_shift_cartesian="2.3880749999999997 0.0" a2_shift_cartesian="-0.13266666666666665 0.22979166666666664" a1="3.1841 0.0" a2="-1.592 2.7575" total_shift="2.255408333333333 0.22979166666666664" layer_energy="_JSON [[-3.6833802343095527, -0.14874888973599681], [0.0, -7.879796061021787]]" il_dist=6.261088740555788 energy=-11.711925185067336 pbc="T T F"
Mo       0.00000000       0.00000000       6.86945563        0       0.01457135      -0.00449010      -0.00864061
S        1.59206666       0.91916667       8.43301196        1       0.19481166      -0.05022931      -0.53435460
S        1.59206666       0.91916667       5.30589931        2      -0.00008146      -0.00001876       0.26173968
W        2.25540833       0.22979167      13.13054437        3      -0.01381060       0.00748935       0.00535970
Se       3.84747500       1.14895833      14.80982077        4      -0.00010225      -0.00002345      -0.88925932
Se       3.84747500       1.14895833      11.45126797        5      -0.19538870       0.04727227       1.16515515
6
Lattice="3.1841 0.0 0.0 -1.592 2.7575 0.0 0.0 0.0 20.0" Properties=species:S:1:pos:R:3:atom_types:I:1:forces:R:3 a1_shift_crystal=0.75 a2_shift_crystal=0.16666666666666666 a1_shift_cartesian="2.3880749999999997 0.0" a2_shift_cartesian="-0.2653333333333333 0.4595833333333333" a1="3.1841 0.0" a2="-1.592 2.7575" total_shift="2.1227416666666663 0.4595833333333333" layer_energy="_JSON [[-3.6833802343095527, -0.18892512713723264], [0.0, -7.879796061021787]]" il_dist=6.261088740555788 energy=-11.752101422468574 pbc="T T F"
Mo       0.00000000       0.00000000       6.86945563        0       0.00873129      -0.00963886      -0.00584236
S        1.59206666       0.91916667       8.43301196        1       0.14473944      -0.06575294      -0.42848641
S        1.59206666       0.91916667       5.30589931        2      -0.00008146      -0.00001876       0.26173968
W        2.12274167       0.45958333      13.13054437        3      -0.00928606       0.01189267       0.00131700
Se       3.71480833       1.37875000      14.80982077        4      -0.00010225      -0.00002345      -0.88925932
Se       3.71480833       1.37875000      11.45126797        5      -0.14400095       0.06354134       1.06053141
6
Lattice="3.1841 0.0 0.0 -1.592 2.7575 0.0 0.0 0.0 20.0" Properties=species:S:1:pos:R:3:atom_types:I:1:forces:R:3 a1_shift_crystal=0.75 a2_shift_crystal=0.25 a1_shift_cartesian="2.3880749999999997 0.0" a2_shift_cartesian="-0.398 0.689375" a1="3.1841 0.0" a2="-1.592 2.7575" total_shift="1.9900749999999996 0.689375" layer_energy="_JSON [[-3.6833802343095527, -0.220868533220309], [0.0, -7.879796061021789]]" il_dist=6.261088740555788 energy=-11.78404482855165 pbc="T T F"
Mo       0.00000000       0.00000000       6.86945563        0       0.00123795      -0.01075785      -0.00294636
S        1.59206666       0.91916667       8.43301196        1       0.08539923      -0.04936964      -0.34604196
S        1.59206666       0.91916667       5.30589931        2      -0.00008146      -0.00001876       0.26173968
W        1.99007500       0.68937500      13.13054437        3      -0.00214180       0.01157632      -0.00253767
Se       3.58214166       1.60854166      14.80982077        4      -0.00010225      -0.00002345      -0.88925932
Se       3.58214166       1.60854166      11.45126797        5      -0.08431166       0.04859339       0.97904564
6
Lattice="3.1841 0.0 0.0 -1.592 2.7575 0.0 0.0 0.0 20.0" Properties=species:S:1:pos:R:3:atom_types:I:1:forces:R:3 a1_shift_crystal=0.75 a2_shift_crystal=0.3333333333333333 a1_shift_cartesian="2.3880749999999997 0.0" a2_shift_cartesian="-0.5306666666666666 0.9191666666666666" a1="3.1841 0.0" a2="-1.592 2.7575" total_shift="1.857408333333333 0.9191666666666666" layer_energy="_JSON [[-3.6833802343095527, -0.2382101732988359], [0.0, -7.879796061021787]]" il_dist=6.261088740555788 energy=-11.801386468630175 pbc="T T F"
Mo       0.00000000       0.00000000       6.86945563        0      -0.00545219      -0.00755748      -0.00133207
S        1.59206666       0.91916667       8.43301196        1       0.03633780      -0.01253010      -0.30288907
S        1.59206666       0.91916667       5.30589931        2      -0.00008146      -0.00001876       0.26173968
W        1.85740833       0.91916667      13.13054437        3       0.00477658       0.00733067      -0.00449847
Se       3.44947500       1.83833333      14.80982077        4      -0.00010225      -0.00002345      -0.88925932
Se       3.44947500       1.83833333      11.45126797        5      -0.03547848       0.01279913       0.93623926
6
Lattice="3.1841 0.0 0.0 -1.592 2.7575 0.0 0.0 0.0 20.0" Properties=species:S:1:pos:R:3:atom_types:I:1:forces:R:3 a1_shift_crystal=0.75 a2_shift_crystal=0.4166666666666667 a1_shift_cartesian="2.3880749999999997 0.0" a2_shift_cartesian="-0.6633333333333334 1.1489583333333333" a1="3.1841 0.0" a2="-1.592 2.7575" total_shift="1.7247416666666662 1.1489583333333333" layer_energy="_JSON [[-3.6833802343095527, -0.2382105051147411], [0.0, -7.879796061021787]]" il_dist=6.261088740555788 energy=-11.801386800446082 pbc="T T F"
Mo       0.00000000       0.00000000       6.86945563        0      -0.00922190      -0.00102796      -0.00133202
S        1.59206666       0.91916667       8.43301196        1       0.00729478       0.03777489      -0.30288830
S        1.59206666       0.91916667       5.30589931        2      -0.00008146      -0.00001876       0.26173968
W        1.72474167       1.14895833      13.13054437        3       0.00879826       0.00036472      -0.00449853
Se       3.31680833       2.06812500      14.80982077        4      -0.00010225      -0.00002345      -0.88925932
Se       3.31680833       2.06812500      11.45126797        5      -0.00668742      -0.03706943       0.93623849
6
Lattice="3.1841 0.0 0.0 -1.592 2.7575 0.0 0.0 0.0 20.0" Properties=species:S:1:pos:R:3:atom_types:I:1:forces:R:3 a1_shift_crystal=0.75 a2_shift_crystal=0.5 a1_shift_cartesian="2.3880749999999997 0.0" a2_shift_cartesian="-0.796 1.37875" a1="3.1841 0.0" a2="-1.592 2.7575" total_shift="1.5920749999999997 1.37875" layer_energy="_JSON [[-3.6833802343095527, -0.22086947404920557], [0.0, -7.879796061021787]]" il_dist=6.261088740555788 energy=-11.784045769380546 pbc="T T F"
Mo       0.00000000       0.00000000       6.86945563        0      -0.00864828       0.00636615      -0.00294621
S        1.59206666       0.91916667       8.43301196        1      -0.00007752       0.09868333      -0.34603971
S        1.59206666       0.91916667       5.30589931        2      -0.00008146      -0.00001876       0.26173968
W        1.59207500       1.37875000      13.13054437        3       0.00901576      -0.00774971      -0.00253781
Se       3.18414166       2.29791666      14.80982077        4      -0.00010225      -0.00002345      -0.88925932
Se       3.18414166       2.29791666      11.45126797        5      -0.00010623      -0.09725755       0.97904338
6
Lattice="3.1841 0.0 0.0 -1.592 2.7575 0.0 0.0 0.0 20.0" Properties=species:S:1:pos:R:3:atom_types:I:1:forces:R:3 a1_shift_crystal=0.75 a2_shift_crystal=0.5833333333333334 a1_shift_cartesian="2.3880749999999997 0.0" a2_shift_cartesian="-0.9286666666666668 1.6085416666666668" a1="3.1841 0.0" a2="-1.592 2.7575" total_shift="1.459408333333333 1.6085416666666668" layer_energy="_JSON [[-3.6833802343095527, -0.18892651027588175], [0.0, -7.879796061021789]]" il_dist=6.261088740555788 energy=-11.752102805607224 pbc="T T F"
Mo       0.00000000       0.00000000       6.86945563        0      -0.00393245       0.01229617      -0.00584215
S        1.59206666       0.91916667       8.43301196        1       0.01540497       0.15826528      -0.42848308
S        1.59206666       0.91916667       5.30589931        2      -0.00008146      -0.00001876       0.26173968
W        1.45940833       1.60854167      13.13054437        3       0.00571750      -0.01409511       0.00131681
Se       3.05147500       2.52770833      14.80982077        4      -0.00010225      -0.00002345      -0.88925932
Se       3.05147500       2.52770833      11.45126797        5      -0.01700631      -0.15642412       1.06052806
6
Lattice="3.1841 0.0 0.0 -1.592 2.7575 0.0 0.0 0.0 20.0" Properties=species:S:1:pos:R:3:atom_types:I:1:forces:R:3 a1_shift_crystal=0.75 a2_shift_crystal=0.6666666666666666 a1_shift_cartesian="2.3880749999999997 0.0" a2_shift_cartesian="-1.0613333333333332 1.8383333333333332" a1="3.1841 0.0" a2="-1.592 2.7575" total_shift="1.3267416666666665 1.8383333333333332" layer_energy="_JSON [[-3.6833802343095527, -0.14875035626582644], [0.0, -7.879796061021787]]" il_dist=6.261088740555788 energy=-11.711926651597167 pbc="T T F"
Mo       0.00000000       0.00000000       6.86945563        0       0.00344655       0.01477948      -0.00864039
S        1.59206666       0.91916667       8.43301196        1       0.05388506       0.19386750      -0.53435099
S        1.59206666       0.91916667       5.30589931        2      -0.00008146      -0.00001876       0.26173968
W        1.32674167       1.83833333      13.13054437        3      -0.00035814      -0.01581187       0.00535951
Se       2.91880833       2.75750000      14.80982077        4      -0.00010225      -0.00002345      -0.88925932
Se       2.91880833       2.75750000      11.45126797        5      -0.05678976      -0.19279289       1.16515151
6
Lattice="3.1841 0.0 0.0 -1.592 2.7575 0.0 0.0 0.0 20.0" Properties=species:S:1:pos:R:3:atom_types:I:1:forces:R:3 a1_shift_crystal=0.75 a2_shift_crystal=0.75 a1_shift_cartesian="2.3880749999999997 0.0" a2_shift_cartesian="-1.194 2.0681249999999998" a1="3.1841 0.0" a2="-1.592 2.7575" total_shift="1.1940749999999998 2.0681249999999998" layer_energy="_JSON [[-3.6833802343095527, -0.11227726908518795], [0.0, -7.879796061021788]]" il_dist=6.261088740555788 energy=-11.675453564416529 pbc="T T F"
Mo       0.00000000       0.00000000       6.86945563        0       0.01108424       0.01389709      -0.01073543
S        1.59206666       0.91916667       8.43301196        1       0.10804400       0.18792545      -0.63375946
S        1.59206666       0.91916667       5.30589931        2      -0.00008146      -0.00001876       0.26173968
W        1.19407500       2.06812500      13.13054437        3      -0.00725769      -0.01355002       0.00844218
Se       2.78614166       2.98729166      14.80982077        4      -0.00010225      -0.00002345      -0.88925932
Se       2.78614166       2.98729166      11.45126797        5      -0.11168683      -0.18823030       1.26357235
6
Lattice="3.1841 0.0 0.0 -1.592 2.7575 0.0 0.0 0.0 20.0" Properties=species:S:1:pos:R:3:atom_types:I:1:forces:R:3 a1_shift_crystal=0.75 a2_shift_crystal=0.8333333333333334 a1_shift_cartesian="2.3880749999999997 0.0" a2_shift_cartesian="-1.3266666666666669 2.2979166666666666" a1="3.1841 0.0" a2="-1.592 2.7575" total_shift="1.0614083333333328 2.2979166666666666" layer_energy="_JSON [[-3.6833802343095527, -0.09097602000231754], [0.0, -7.879796061021789]]" il_dist=6.261088740555788 energy=-11.65415231533366 pbc="T T F"
Mo       0.00000000       0.00000000       6.86945563        0       0.01746355       0.01071747      -0.01160876
S        1.59206666       0.91916667       8.43301196        1       0.16334398       0.14129690      -0.69381511
S        1.59206666       0.91916667       5.30589931        2      -0.00008146      -0.00001876       0.26173968
W        1.06140833       2.29791667      13.13054437        3      -0.01350765      -0.00914125       0.00981539
Se       2.65347500       3.21708333      14.80982077        4      -0.00010225      -0.00002345      -0.88925932
Se       2.65347500       3.21708333      11.45126797        5      -0.16711616      -0.14283090       1.32312813
6
Lattice="3.1841 0.0 0.0 -1.592 2.7575 0.0 0.0 0.0 20.0" Properties=species:S:1:pos:R:3:atom_types:I:1:forces:R:3 a1_shift_crystal=0.75 a2_shift_crystal=0.9166666666666666 a1_shift_cartesian="2.3880749999999997 0.0" a2_shift_cartesian="-1.4593333333333334 2.527708333333333" a1="3.1841 0.0" a2="-1.592 2.7575" total_shift="0.9287416666666664 2.527708333333333" layer_energy="_JSON [[-3.6833802343095527, -0.09161456410648275], [0.0, -7.879796061021789]]" il_dist=6.261088740555788 energy=-11.654790859437824 pbc="T T F"
Mo       0.00000000       0.00000000       6.86945563        0       0.02194237       0.00637752      -0.01110280
S        1.59206666       0.91916667       8.43301196        1       0.20401480       0.07085154      -0.69381616
S        1.59206666       0.91916667       5.30589931        2      -0.00008146      -0.00001876       0.26173968
W        0.92874167       2.52770833      13.13054437        3      -0.01848875      -0.00393132       0.00930942
Se       2.52080833       3.44687500      14.80982077        4      -0.00010225      -0.00002345      -0.88925932
Se       2.52080833       3.44687500      11.45126797        5      -0.20728470      -0.07325551       1.32312918
6
Lattice="3.1841 0.0 0.0 -1.592 2.7575 0.0 0.0 0.0 20.0" Properties=species:S:1:pos:R:3:atom_types:I:1:forces:R:3 a1_shift_crystal=0.8333333333333334 a2_shift_crystal=0.0 a1_shift_cartesian="2.6534166666666668 0.0" a2_shift_cartesian="-0.0 0.0" a1="3.1841 0.0" a2="-1.592 2.7575" total_shift="2.6534166666666668 0.0" layer_energy="_JSON [[-3.6833802343095527, -0.05273917408950453], [0.0, -7.879796061021789]]" il_dist=6.261088740555788 energy=-11.615915469420846 pbc="T T F"
Mo       0.00000000       0.00000000       6.86945563        0       0.01795693       0.00029533      -0.01516087
S        1.59206666       0.91916667       8.43301196        1       0.19215747      -0.00011312      -0.79898178
S        1.59206666       0.91916667       5.30589931        2      -0.00008146      -0.00001876       0.26173968
W        2.65341667       0.00000000      13.13054437        3      -0.01609963       0.00109549       0.01198605
Se       4.24548333       0.91916666      14.80982077        4      -0.00010225      -0.00002345      -0.88925932
Se       4.24548333       0.91916666      11.45126797        5      -0.19383105      -0.00123549       1.42967624
6
Lattice="3.1841 0.0 0.0 -1.592 2.7575 0.0 0.0 0.0 20.0" Properties=species:S:1:pos:R:3:atom_types:I:1:forces:R:3 a1_shift_crystal=0.8333333333333334 a2_shift_crystal=0.08333333333333333 a1_shift_cartesian="2.6534166666666668 0.0" a2_shift_cartesian="-0.13266666666666665 0.22979166666666664" a1="3.1841 0.0" a2="-1.592 2.7575" total_shift="2.52075 0.22979166666666664" layer_energy="_JSON [[-3.6833802343095527, -0.0902626985426706], [0.0, -7.879796061021788]]" il_dist=6.261088740555788 energy=-11.653438993874012 pbc="T T F"
Mo       0.00000000       0.00000000       6.86945563        0       0.01580061      -0.00651052      -0.01312238
S        1.59206666       0.91916667       8.43301196        1       0.20443526      -0.07129817      -0.69366001
S        1.59206666       0.91916667       5.30589931        2      -0.00008146      -0.00001876       0.26173968
W        2.52075000       0.22979167      13.13054437        3      -0.01502981       0.00773688       0.00965399
Se       4.11281666       1.14895833      14.80982077        4      -0.00010225      -0.00002345      -0.88925932
Se       4.11281666       1.14895833      11.45126797        5      -0.20502234       0.07011403       1.32464804
6
Lattice="3.1841 0.0 0.0 -1.592 2.7575 0.0 0.0 0.0 20.0" Properties=species:S:1:pos:R:3:atom_types:I:1:forces:R:3 a1_shift_crystal=0.8333333333333334 a2_shift_crystal=0.16666666666666666 a1_shift_cartesian="2.6534166666666668 0.0" a2_shift_cartesian="-0.2653333333333333 0.4595833333333333" a1="3.1841 0.0" a2="-1.592 2.7575" total_shift="2.3880833333333333 0.4595833333333333" layer_energy="_JSON [[-3.6833802343095527, -0.1415213625516695], [0.0, -7.879796061021787]]" il_dist=6.261088740555788 energy=-11.70469765788301 pbc="T T F"
Mo       0.00000000       0.00000000       6.86945563        0       0.01402377      -0.01277767      -0.00900719
S        1.59206666       0.91916667       8.43301196        1       0.18057918      -0.10432314      -0.55594800
S        1.59206666       0.91916667       5.30589931        2      -0.00008146      -0.00001876       0.26173968
W        2.38808333       0.45958333      13.13054437        3      -0.01475331       0.01349545       0.00504088
Se       3.98015000       1.37875000      14.80982077        4      -0.00010225      -0.00002345      -0.88925932
Se       3.98015000       1.37875000      11.45126797        5      -0.17966593       0.10364758       1.18743395
6
Lattice="3.1841 0.0 0.0 -1.592 2.7575 0.0 0.0 0.0 20.0" Properties=species:S:1:pos:R:3:atom_types:I:1:forces:R:3 a1_shift_crystal=0.8333333333333334 a2_shift_crystal=0.25 a1_shift_cartesian="2.6534166666666668 0.0" a2_shift_cartesian="-0.398 0.689375" a1="3.1841 0.0" a2="-1.592 2.7575" total_shift="2.2554166666666666 0.689375" layer_energy="_JSON [[-3.6833802343095527, -0.19061175532877336], [0.0, -7.879796061021787]]" il_dist=6.261088740555788 energy=-11.753788050660113 pbc="T T F"
Mo       0.00000000       0.00000000       6.86945563        0       0.00887892      -0.01483169      -0.00441003
S        1.59206666       0.91916667       8.43301196        1       0.12925720      -0.09256952      -0.42848873
S        1.59206666       0.91916667       5.30589931        2      -0.00008146      -0.00001876       0.26173968
W        2.25541667       0.68937500      13.13054437        3      -0.01085131       0.01463016      -0.00011533
Se       3.84748333       1.60854166      14.80982077        4      -0.00010225      -0.00002345      -0.88925932
Se       3.84748333       1.60854166      11.45126797        5      -0.12710109       0.09281326       1.06053374
6
Lattice="3.1841 0.0 0.0 -1.592 2.7575 0.0 0.0 0.0 20.0" Properties=species:S:1:pos:R:3:atom_types:I:1:forces:R:3 a1_shift_crystal=0.8333333333333334 a2_shift_crystal=0.3333333333333333 a1_shift_cartesian="2.6534166666666668 0.0" a2_shift_cartesian="-0.5306666666666666 0.9191666666666666" a1="3.1841 0.0" a2="-1.592 2.7575" total_shift="2.12275 0.9191666666666666" layer_energy="_JSON [[-3.6833802343095527, -0.22427715451800168], [0.0, -7.879796061021787]]" il_dist=6.261088740555788 energy=-11.787453449849341 pbc="T T F"
Mo       0.00000000       0.00000000       6.86945563        0       0.00152980      -0.01124610      -0.00071213
S        1.59206666       0.91916667       8.43301196        1       0.07117159      -0.04811478      -0.34343445
S        1.59206666       0.91916667       5.30589931        2      -0.00008146      -0.00001876       0.26173968
W        2.12275000       0.91916667      13.13054437        3      -0.00398306       0.01011876      -0.00415783
Se       3.71481666       1.83833333      14.80982077        4      -0.00010225      -0.00002345      -0.88925932
Se       3.71481666       1.83833333      11.45126797        5      -0.06853461       0.04928434       0.97582404
6
Lattice="3.1841 0.0 0.0 -1.592 2.7575 0.0 0.0 0.0 20.0" Properties=species:S:1:pos:R:3:atom_types:I:1:forces:R:3 a1_shift_crystal=0.8333333333333334 a2_shift_crystal=0.4166666666666667 a1_shift_cartesian="2.6534166666666668 0.0" a2_shift_cartesian="-0.6633333333333334 1.1489583333333333" a1="3.1841 0.0" a2="-1.592 2.7575" total_shift="1.9900833333333332 1.1489583333333333" layer_energy="_JSON [[-3.6833802343095527, -0.23598004388010813], [0.0, -7.879796061021787]]" il_dist=6.261088740555788 energy=-11.799156339211448 pbc="T T F"
Mo       0.00000000       0.00000000       6.86945563        0      -0.00522364      -0.00307253       0.00072713
S        1.59206666       0.91916667       8.43301196        1       0.02376717       0.01374891      -0.31429115
S        1.59206666       0.91916667       5.30589931        2      -0.00008146      -0.00001876       0.26173968
W        1.99008333       1.14895833      13.13054437        3       0.00276106       0.00152308      -0.00568389
Se       3.58215000       2.06812500      14.80982077        4      -0.00010225      -0.00002345      -0.88925932
Se       3.58215000       2.06812500      11.45126797        5      -0.02112088      -0.01215725       0.94676755
6
Lattice="3.1841 0.0 0.0 -1.592 2.7575 0.0 0.0 0.0 20.0" Properties=species:S:1:pos:R:3:atom_types:I:1:forces:R:3 a1_shift_crystal=0.8333333333333334 a2_shift_crystal=0.5 a1_shift_cartesian="2.6534166666666668 0.0" a2_shift_cartesian="-0.796 1.37875" a1="3.1841 0.0" a2="-1.592 2.7575" total_shift="1.8574166666666667 1.37875" layer_energy="_JSON [[-3.6833802343095527, -0.22427767741341212], [0.0, -7.879796061021787]]" il_dist=6.261088740555788 energy=-11.787453972744753 pbc="T T F"
Mo       0.00000000       0.00000000       6.86945563        0      -0.00892521       0.00686304      -0.00071204
S        1.59206666       0.91916667       8.43301196        1      -0.00610467       0.08573488      -0.34343320
S        1.59206666       0.91916667       5.30589931        2      -0.00008146      -0.00001876       0.26173968
W        1.85741667       1.37875000      13.13054437        3       0.00683283      -0.00861549      -0.00415790
Se       3.44948333       2.29791666      14.80982077        4      -0.00010225      -0.00002345      -0.88925932
Se       3.44948333       2.29791666      11.45126797        5       0.00838077      -0.08394021       0.97582278
6
Lattice="3.1841 0.0 0.0 -1.592 2.7575 0.0 0.0 0.0 20.0" Properties=species:S:1:pos:R:3:atom_types:I:1:forces:R:3 a1_shift_crystal=0.8333333333333334 a2_shift_crystal=0.5833333333333334 a1_shift_cartesian="2.6534166666666668 0.0" a2_shift_cartesian="-0.9286666666666668 1.6085416666666668" a1="3.1841 0.0" a2="-1.592 2.7575" total_shift="1.72475 1.6085416666666668" layer_energy="_JSON [[-3.6833802343095527, -0.19061271790846318], [0.0, -7.879796061021787]]" il_dist=6.261088740555788 energy=-11.753789013239803 pbc="T T F"
Mo       0.00000000       0.00000000       6.86945563        0      -0.00835571       0.01502049      -0.00440989
S        1.59206666       0.91916667       8.43301196        1      -0.01555948       0.15826636      -0.42848640
S        1.59206666       0.91916667       5.30589931        2      -0.00008146      -0.00001876       0.26173968
W        1.72475000       1.60854167      13.13054437        3       0.00730555      -0.01681941      -0.00011545
Se       3.31681666       2.52770833      14.80982077        4      -0.00010225      -0.00002345      -0.88925932
Se       3.31681666       2.52770833      11.45126797        5       0.01679336      -0.15642522       1.06053138
6
Lattice="3.1841 0.0 0.0 -1.592 2.7575 0.0 0.0 0.0 20.0" Properties=species:S:1:pos:R:3:atom_types:I:1:forces:R:3 a1_shift_crystal=0.8333333333333334 a2_shift_crystal=0.6666666666666666 a1_shift_cartesian="2.6534166666666668 0.0" a2_shift_cartesian="-1.0613333333333332 1.8383333333333332" a1="3.1841 0.0" a2="-1.592 2.7575" total_shift="1.5920833333333335 1.8383333333333332" layer_energy="_JSON [[-3.6833802343095527, -0.14152252803799037], [0.0, -7.879796061021787]]" il_dist=6.261088740555788 energy=-11.70469882336933 pbc="T T F"
Mo       0.00000000       0.00000000       6.86945563        0      -0.00400441       0.01844914      -0.00900704
S        1.59206666       0.91916667       8.43301196        1      -0.00007676       0.20858971      -0.55594507
S        1.59206666       0.91916667       5.30589931        2      -0.00008146      -0.00001876       0.26173968
W        1.59208333       1.83833333      13.13054437        3       0.00437183      -0.01963137       0.00504075
Se       3.18415000       2.75750000      14.80982077        4      -0.00010225      -0.00002345      -0.88925932
Se       3.18415000       2.75750000      11.45126797        5      -0.00010695      -0.20736526       1.18743099
6
Lattice="3.1841 0.0 0.0 -1.592 2.7575 0.0 0.0 0.0 20.0" Properties=species:S:1:pos:R:3:atom_types:I:1:forces:R:3 a1_shift_crystal=0.8333333333333334 a2_shift_crystal=0.75 a1_shift_cartesian="2.6534166666666668 0.0" a2_shift_cartesian="-1.194 2.0681249999999998" a1="3.1841 0.0" a2="-1.592 2.7575" total_shift="1.4594166666666668 2.0681249999999998" layer_energy="_JSON [[-3.6833802343095527, -0.09026374411875575], [0.0, -7.879796061021787]]" il_dist=6.261088740555788 energy=-11.653440039450096 pbc="T T F"
Mo       0.00000000       0.00000000       6.86945563        0       0.00231144       0.01685434      -0.01312225
S        1.59206666       0.91916667       8.43301196        1       0.04045135       0.21273729      -0.69365732
S        1.59206666       0.91916667       5.30589931        2      -0.00008146      -0.00001876       0.26173968
W        1.45941667       2.06812500      13.13054437        3      -0.00075339      -0.01699154       0.00965387
Se       3.05148333       2.98729166      14.80982077        4      -0.00010225      -0.00002345      -0.88925932
Se       3.05148333       2.98729166      11.45126797        5      -0.04182569      -0.21255787       1.32464534
6
Lattice="3.1841 0.0 0.0 -1.592 2.7575 0.0 0.0 0.0 20.0" Properties=species:S:1:pos:R:3:atom_types:I:1:forces:R:3 a1_shift_crystal=0.8333333333333334 a2_shift_crystal=0.8333333333333334 a1_shift_cartesian="2.6534166666666668 0.0" a2_shift_cartesian="-1.3266666666666669 2.2979166666666666" a1="3.1841 0.0" a2="-1.592 2.7575" total_shift="1.3267499999999999 2.2979166666666666" layer_energy="_JSON [[-3.6833802343095527, -0.052106923953827884], [0.0, -7.879796061021787]]" il_dist=6.261088740555788 energy=-11.615283219285168 pbc="T T F"
Mo       0.00000000       0.00000000       6.86945563        0       0.00856437       0.01216522      -0.01561982
S        1.59206666       0.91916667       8.43301196        1       0.09595916       0.16651142      -0.79898019
S        1.59206666       0.91916667       5.30589931        2      -0.00008146      -0.00001876       0.26173968
W        1.32675000       2.29791667      13.13054437        3      -0.00632062      -0.01144375       0.01244501
Se       2.91881666       3.21708333      14.80982077        4      -0.00010225      -0.00002345      -0.88925932
Se       2.91881666       3.21708333      11.45126797        5      -0.09801919      -0.16719068       1.42967464
6
Lattice="3.1841 0.0 0.0 -1.592 2.7575 0.0 0.0 0.0 20.0" Properties=species:S:1:pos:R:3:atom_types:I:1:forces:R:3 a1_shift_crystal=0.8333333333333334 a2_shift_crystal=0.9166666666666666 a1_shift_cartesian="2.6534166666666668 0.0" a2_shift_cartesian="-1.4593333333333334 2.527708333333333" a1="3.1841 0.0" a2="-1.592 2.7575" total_shift="1.1940833333333334 2.527708333333333" layer_energy="_JSON [[-3.6833802343095527, -0.03841700931408407], [0.0, -7.879796061021787]]" il_dist=6.261088740555788 energy=-11.601593304645425 pbc="T T F"
Mo       0.00000000       0.00000000       6.86945563        0       0.01373348       0.00649200      -0.01634451
S        1.59206666       0.91916667       8.43301196        1       0.15134829       0.08740808      -0.83813870
S        1.59206666       0.91916667       5.30589931        2      -0.00008146      -0.00001876       0.26173968
W        1.19408333       2.52770833      13.13054437        3      -0.01138694      -0.00526495       0.01326189
Se       2.78615000       3.44687500      14.80982077        4      -0.00010225      -0.00002345      -0.88925932
Se       2.78615000       3.44687500      11.45126797        5      -0.15351112      -0.08859292       1.46874097
6
Lattice="3.1841 0.0 0.0 -1.592 2.7575 0.0 0.0 0.0 20.0" Properties=species:S:1:pos:R:3:atom_types:I:1:forces:R:3 a1_shift_crystal=0.9166666666666666 a2_shift_crystal=0.0 a1_shift_cartesian="2.9187583333333333 0.0" a2_shift_cartesian="-0.0 0.0" a1="3.1841 0.0" a2="-1.592 2.7575" total_shift="2.9187583333333333 0.0" layer_energy="_JSON [[-3.6833802343095527, -0.008215266644918656], [0.0, -7.879796061021789]]" il_dist=6.261088740555788 energy=-11.57139156197626 pbc="T T F"
Mo       0.00000000       0.00000000       6.86945563        0       0.00885644      -0.00012559      -0.01892068
S        1.59206666       0.91916667       8.43301196        1       0.11017998      -0.00003377      -0.92267754
S        1.59206666       0.91916667       5.30589931        2      -0.00008146      -0.00001876       0.26173968
W        2.91875833       0.00000000      13.13054437        3      -0.00775349       0.00053643       0.01519704
Se       4.51082500       0.91916666      14.80982077        4      -0.00010225      -0.00002345      -0.88925932
Se       4.51082500       0.91916666      11.45126797        5      -0.11109921      -0.00033485       1.55392082
6
Lattice="3.1841 0.0 0.0 -1.592 2.7575 0.0 0.0 0.0 20.0" Properties=species:S:1:pos:R:3:atom_types:I:1:forces:R:3 a1_shift_crystal=0.9166666666666666 a2_shift_crystal=0.08333333333333333 a1_shift_cartesian="2.9187583333333333 0.0" a2_shift_cartesian="-0.13266666666666665 0.22979166666666664" a1="3.1841 0.0" a2="-1.592 2.7575" total_shift="2.7860916666666666 0.22979166666666664" layer_energy="_JSON [[-3.6833802343095527, -0.03815184603066607], [0.0, -7.879796061021787]]" il_dist=6.261088740555788 energy=-11.601328141362007 pbc="T T F"
Mo       0.00000000       0.00000000       6.86945563        0       0.01097904      -0.00758768      -0.01687189
S        1.59206666       0.91916667       8.43301196        1       0.15148481      -0.08752590      -0.83811418
S        1.59206666       0.91916667       5.30589931        2      -0.00008146      -0.00001876       0.26173968
W        2.78609167       0.22979167      13.13054437        3      -0.01033041       0.00750972       0.01323338
Se       4.37815833       1.14895833      14.80982077        4      -0.00010225      -0.00002345      -0.88925932
Se       4.37815833       1.14895833      11.45126797        5      -0.15194972       0.08764607       1.46927233
6
Lattice="3.1841 0.0 0.0 -1.592 2.7575 0.0 0.0 0.0 20.0" Properties=species:S:1:pos:R:3:atom_types:I:1:forces:R:3 a1_shift_crystal=0.9166666666666666 a2_shift_crystal=0.16666666666666666 a1_shift_cartesian="2.9187583333333333 0.0" a2_shift_cartesian="-0.2653333333333333 0.4595833333333333" a1="3.1841 0.0" a2="-1.592 2.7575" total_shift="2.653425 0.4595833333333333" layer_energy="_JSON [[-3.6833802343095527, -0.09090077487553283], [0.0, -7.879796061021787]]" il_dist=6.261088740555788 energy=-11.654077070206874 pbc="T T F"
Mo       0.00000000       0.00000000       6.86945563        0       0.01273225      -0.01524264      -0.01261641
S        1.59206666       0.91916667       8.43301196        1       0.16390579      -0.14149586      -0.69366244
S        1.59206666       0.91916667       5.30589931        2      -0.00008146      -0.00001876       0.26173968
W        2.65342500       0.45958333      13.13054437        3      -0.01315211       0.01440677       0.00914804
Se       4.24549166       1.37875000      14.80982077        4      -0.00010225      -0.00002345      -0.88925932
Se       4.24549166       1.37875000      11.45126797        5      -0.16330222       0.14237396       1.32465046
6
Lattice="3.1841 0.0 0.0 -1.592 2.7575 0.0 0.0 0.0 20.0" Properties=species:S:1:pos:R:3:atom_types:I:1:forces:R:3 a1_shift_crystal=0.9166666666666666 a2_shift_crystal=0.25 a1_shift_cartesian="2.9187583333333333 0.0" a2_shift_cartesian="-0.398 0.689375" a1="3.1841 0.0" a2="-1.592 2.7575" total_shift="2.520758333333333 0.689375" layer_energy="_JSON [[-3.6833802343095527, -0.15093428665325015], [0.0, -7.879796061021787]]" il_dist=6.261088740555788 energy=-11.71411058198459 pbc="T T F"
Mo       0.00000000       0.00000000       6.86945563        0       0.01120466      -0.01943144      -0.00683063
S        1.59206666       0.91916667       8.43301196        1       0.14084835      -0.14369625      -0.53435941
S        1.59206666       0.91916667       5.30589931        2      -0.00008146      -0.00001876       0.26173968
W        2.52075833       0.68937500      13.13054437        3      -0.01316491       0.01771789       0.00354973
Se       4.11282500       1.60854166      14.80982077        4      -0.00010225      -0.00002345      -0.88925932
Se       4.11282500       1.60854166      11.45126797        5      -0.13870439       0.14545203       1.16515996
6
Lattice="3.1841 0.0 0.0 -1.592 2.7575 0.0 0.0 0.0 20.0" Properties=species:S:1:pos:R:3:atom_types:I:1:forces:R:3 a1_shift_crystal=0.9166666666666666 a2_shift_crystal=0.3333333333333333 a1_shift_cartesian="2.9187583333333333 0.0" a2_shift_cartesian="-0.5306666666666666 0.9191666666666666" a1="3.1841 0.0" a2="-1.592 2.7575" total_shift="2.388091666666667 0.9191666666666666" layer_energy="_JSON [[-3.6833802343095527, -0.20089706389705472], [0.0, -7.879796061021787]]" il_dist=6.261088740555788 energy=-11.764073359228394 pbc="T T F"
Mo       0.00000000       0.00000000       6.86945563        0       0.00595036      -0.01721315      -0.00134377
S        1.59206666       0.91916667       8.43301196        1       0.09335778      -0.09947449      -0.40662534
S        1.59206666       0.91916667       5.30589931        2      -0.00008146      -0.00001876       0.26173968
W        2.38809167       0.91916667      13.13054437        3      -0.00934389       0.01476953      -0.00177413
Se       3.98015833       1.83833333      14.80982077        4      -0.00010225      -0.00002345      -0.88925932
Se       3.98015833       1.83833333      11.45126797        5      -0.08978054       0.10196033       1.03726288
6
Lattice="3.1841 0.0 0.0 -1.592 2.7575 0.0 0.0 0.0 20.0" Properties=species:S:1:pos:R:3:atom_types:I:1:forces:R:3 a1_shift_crystal=0.9166666666666666 a2_shift_crystal=0.4166666666666667 a1_shift_cartesian="2.9187583333333333 0.0" a2_shift_cartesian="-0.6633333333333334 1.1489583333333333" a1="3.1841 0.0" a2="-1.592 2.7575" total_shift="2.255425 1.1489583333333333" layer_energy="_JSON [[-3.6833802343095527, -0.22826356364201195], [0.0, -7.879796061021787]]" il_dist=6.261088740555788 energy=-11.791439858973352 pbc="T T F"
Mo       0.00000000       0.00000000       6.86945563        0      -0.00142783      -0.00864752       0.00206169
S        1.59206666       0.91916667       8.43301196        1       0.04047588      -0.02975869      -0.33838015
S        1.59206666       0.91916667       5.30589931        2      -0.00008146      -0.00001876       0.26173968
W        2.25542500       1.14895833      13.13054437        3      -0.00280614       0.00592339      -0.00507362
Se       3.84749166       2.06812500      14.80982077        4      -0.00010225      -0.00002345      -0.88925932
Se       3.84749166       2.06812500      11.45126797        5      -0.03605819       0.03252504       0.96891173
6
Lattice="3.1841 0.0 0.0 -1.592 2.7575 0.0 0.0 0.0 20.0" Properties=species:S:1:pos:R:3:atom_types:I:1:forces:R:3 a1_shift_crystal=0.9166666666666666 a2_shift_crystal=0.5 a1_shift_cartesian="2.9187583333333333 0.0" a2_shift_cartesian="-0.796 1.37875" a1="3.1841 0.0" a2="-1.592 2.7575" total_shift="2.1227583333333335 1.37875" layer_energy="_JSON [[-3.6833802343095527, -0.2282637189184923], [0.0, -7.879796061021787]]" il_dist=6.261088740555788 energy=-11.791440014249833 pbc="T T F"
Mo       0.00000000       0.00000000       6.86945563        0      -0.00815374       0.00300243       0.00206172
S        1.59206666       0.91916667       8.43301196        1      -0.00555668       0.04997421      -0.33837979
S        1.59206666       0.91916667       5.30589931        2      -0.00008146      -0.00001876       0.26173968
W        2.12275833       1.37875000      13.13054437        3       0.00378814      -0.00549858      -0.00507364
Se       3.71482500       2.29791666      14.80982077        4      -0.00010225      -0.00002345      -0.88925932
Se       3.71482500       2.29791666      11.45126797        5       0.01010601      -0.04743584       0.96891136
6
Lattice="3.1841 0.0 0.0 -1.592 2.7575 0.0 0.0 0.0 20.0" Properties=species:S:1:pos:R:3:atom_types:I:1:forces:R:3 a1_shift_crystal=0.9166666666666666 a2_shift_crystal=0.5833333333333334 a1_shift_cartesian="2.9187583333333333 0.0" a2_shift_cartesian="-0.9286666666666668 1.6085416666666668" a1="3.1841 0.0" a2="-1.592 2.7575" total_shift="1.9900916666666666 1.6085416666666668" layer_energy="_JSON [[-3.6833802343095527, -0.20089749989863528], [0.0, -7.879796061021789]]" il_dist=6.261088740555788 energy=-11.764073795229978 pbc="T T F"
Mo       0.00000000       0.00000000       6.86945563        0      -0.01188247       0.01367510      -0.00134369
S        1.59206666       0.91916667       8.43301196        1      -0.03948955       0.13063009      -0.40662430
S        1.59206666       0.91916667       5.30589931        2      -0.00008146      -0.00001876       0.26173968
W        1.99009167       1.60854167      13.13054437        3       0.00818001      -0.01558366      -0.00177418
Se       3.58215833       2.52770833      14.80982077        4      -0.00010225      -0.00002345      -0.88925932
Se       3.58215833       2.52770833      11.45126797        5       0.04337573      -0.12867931       1.03726181
6
Lattice="3.1841 0.0 0.0 -1.592 2.7575 0.0 0.0 0.0 20.0" Properties=species:S:1:pos:R:3:atom_types:I:1:forces:R:3 a1_shift_crystal=0.9166666666666666 a2_shift_crystal=0.6666666666666666 a1_shift_cartesian="2.9187583333333333 0.0" a2_shift_cartesian="-1.0613333333333332 1.8383333333333332" a1="3.1841 0.0" a2="-1.592 2.7575" total_shift="1.857425 1.8383333333333332" layer_energy="_JSON [[-3.6833802343095527, -0.1509349121416888], [0.0, -7.879796061021789]]" il_dist=6.261088740555788 energy=-11.714111207473032 pbc="T T F"
Mo       0.00000000       0.00000000       6.86945563        0      -0.01117631       0.01933470      -0.00683054
S        1.59206666       0.91916667       8.43301196        1      -0.05404016       0.19386969      -0.53435787
S        1.59206666       0.91916667       5.30589931        2      -0.00008146      -0.00001876       0.26173968
W        1.85742500       1.83833333      13.13054437        3       0.00882276      -0.02036704       0.00354966
Se       3.44949166       2.75750000      14.80982077        4      -0.00010225      -0.00002345      -0.88925932
Se       3.44949166       2.75750000      11.45126797        5       0.05657743      -0.19279513       1.16515838
6
Lattice="3.1841 0.0 0.0 -1.592 2.7575 0.0 0.0 0.0 20.0" Properties=species:S:1:pos:R:3:atom_types:I:1:forces:R:3 a1_shift_crystal=0.9166666666666666 a2_shift_crystal=0.75 a1_shift_cartesian="2.9187583333333333 0.0" a2_shift_cartesian="-1.194 2.0681249999999998" a1="3.1841 0.0" a2="-1.592 2.7575" total_shift="1.7247583333333334 2.0681249999999998" layer_energy="_JSON [[-3.6833802343095527, -0.09090141673668606], [0.0, -7.879796061021787]]" il_dist=6.261088740555788 energy=-11.654077712068027 pbc="T T F"
Mo       0.00000000       0.00000000       6.86945563        0      -0.00678496       0.01856323      -0.01261633
S        1.59206666       0.91916667       8.43301196        1      -0.04060570       0.21273807      -0.69366079
S        1.59206666       0.91916667       5.30589931        2      -0.00008146      -0.00001876       0.26173968
W        1.72475833       2.06812500      13.13054437        3       0.00596171      -0.01870041       0.00914797
Se       3.31682500       2.98729166      14.80982077        4      -0.00010225      -0.00002345      -0.88925932
Se       3.31682500       2.98729166      11.45126797        5       0.04161266      -0.21255867       1.32464879
6
Lattice="3.1841 0.0 0.0 -1.592 2.7575 0.0 0.0 0.0 20.0" Properties=species:S:1:pos:R:3:atom_types:I:1:forces:R:3 a1_shift_crystal=0.9166666666666666 a2_shift_crystal=0.8333333333333334 a1_shift_cartesian="2.9187583333333333 0.0" a2_shift_cartesian="-1.3266666666666669 2.2979166666666666" a1="3.1841 0.0" a2="-1.592 2.7575" total_shift="1.5920916666666665 2.2979166666666666" layer_energy="_JSON [[-3.6833802343095527, -0.03815231733528469], [0.0, -7.879796061021788]]" il_dist=6.261088740555788 energy=-11.601328612666626 pbc="T T F"
Mo       0.00000000       0.00000000       6.86945563        0      -0.00103231       0.01321733      -0.01687183
S        1.59206666       0.91916667       8.43301196        1      -0.00007799       0.17499576      -0.83811294
S        1.59206666       0.91916667       5.30589931        2      -0.00008146      -0.00001876       0.26173968
W        1.59209167       2.29791667      13.13054437        3       0.00139970      -0.01280816       0.01323333
Se       3.18415833       3.21708333      14.80982077        4      -0.00010225      -0.00002345      -0.88925932
Se       3.18415833       3.21708333      11.45126797        5      -0.00010569      -0.17536271       1.46927108
6
Lattice="3.1841 0.0 0.0 -1.592 2.7575 0.0 0.0 0.0 20.0" Properties=species:S:1:pos:R:3:atom_types:I:1:forces:R:3 a1_shift_crystal=0.9166666666666666 a2_shift_crystal=0.9166666666666666 a1_shift_cartesian="2.9187583333333333 0.0" a2_shift_cartesian="-1.4593333333333334 2.527708333333333" a1="3.1841 0.0" a2="-1.592 2.7575" total_shift="1.459425 2.527708333333333" layer_energy="_JSON [[-3.6833802343095527, -0.008094789574651678], [0.0, -7.879796061021787]]" il_dist=6.261088740555788 energy=-11.571271084905991 pbc="T T F"
Mo       0.00000000       0.00000000       6.86945563        0       0.00427929       0.00654455      -0.01898617
S        1.59206666       0.91916667       8.43301196        1       0.05503797       0.09547762      -0.92267709
S        1.59206666       0.91916667       5.30589931        2      -0.00008146      -0.00001876       0.26173968
W        1.45942500       2.52770833      13.13054437        3      -0.00326142      -0.00598635       0.01526254
Se       3.05149166       3.44687500      14.80982077        4      -0.00010225      -0.00002345      -0.88925932
Se       3.05149166       3.44687500      11.45126797        5      -0.05587212      -0.09599360       1.55392036
